 # Version information for this restart file 
 # current date 2021-04-13 13:38:19.708
 # current working dir /user/pubo1141/simulations/aiida_tests
 # Program compiled at                             Mo 21. Sep 11:33:18 CEST 2020
 # Program compiled on                                                   hpcl002
 # Program compiled for                                       Linux-x86-64-intel
 # Source code revision number                                       git:e635599
 &GLOBAL
   PROJECT_NAME aiida
   RUN_TYPE  MD
 &END GLOBAL
 &MOTION
   &MD
     ENSEMBLE  NVT
     STEPS  20
     TIMESTEP     4.9999999999999994E-01
     STEP_START_VAL  20
     TIME_START_VAL     1.0000000000000002E+01
     ECONS_START_VAL    -1.1028093929038405E+03
     TEMPERATURE     3.0000000000000000E+02
     &THERMOSTAT
       TYPE  NOSE
       REGION  MASSIVE
     &END THERMOSTAT
     &AVERAGES  T
       &RESTART_AVERAGES
         ITIMES_START  1
         AVECPU     6.0498684386163951E+01
         AVEHUGONIOT     0.0000000000000000E+00
         AVETEMP_BARO     0.0000000000000000E+00
         AVEPOT    -1.1033699577191578E+03
         AVEKIN     2.8697931484024497E-01
         AVETEMP     3.1465552812189748E+02
         AVEKIN_QM     0.0000000000000000E+00
         AVETEMP_QM     0.0000000000000000E+00
         AVEVOL     1.2928894580884409E+04
         AVECELL_A     2.3470398570439688E+01
         AVECELL_B     2.3470398570439688E+01
         AVECELL_C     2.3470398570439688E+01
         AVEALPHA     9.0000000000000000E+01
         AVEBETA     9.0000000000000000E+01
         AVEGAMMA     9.0000000000000000E+01
         AVE_ECONS    -7.7433378008604073E-02
         AVE_PRESS     0.0000000000000000E+00
         AVE_PXX     0.0000000000000000E+00
       &END RESTART_AVERAGES
     &END AVERAGES
   &END MD
 &END MOTION
 &FORCE_EVAL
   METHOD  QS
   &DFT
     BASIS_SET_FILE_NAME BASIS_MOLOPT
     POTENTIAL_FILE_NAME GTH_POTENTIALS
     MULTIPLICITY  1
     CHARGE  0
     &SCF
       MAX_SCF  30
       EPS_SCF     9.9999999999999995E-07
       SCF_GUESS  ATOMIC
       &OT  T
         MINIMIZER  DIIS
         PRECONDITIONER  FULL_SINGLE_INVERSE
       &END OT
       &OUTER_SCF  T
         EPS_SCF     9.9999999999999995E-07
         MAX_SCF  10
       &END OUTER_SCF
       &PRINT
         &RESTART  OFF
         &END RESTART
       &END PRINT
     &END SCF
     &QS
       EPS_DEFAULT     1.0000000000000000E-10
       EXTRAPOLATION  ASPC
       METHOD  GPW
     &END QS
     &MGRID
       CUTOFF     4.0000000000000000E+02
     &END MGRID
     &XC
       DENSITY_CUTOFF     1.0000000000000000E-10
       GRADIENT_CUTOFF     1.0000000000000000E-10
       TAU_CUTOFF     1.0000000000000000E-10
       &XC_FUNCTIONAL  NO_SHORTCUT
         &PBE  T
         &END PBE
       &END XC_FUNCTIONAL
       &VDW_POTENTIAL
         POTENTIAL_TYPE  PAIR_POTENTIAL
         &PAIR_POTENTIAL
           R_CUTOFF     1.6000000000000000E+01
           TYPE  DFTD3
           PARAMETER_FILE_NAME dftd3.dat
           REFERENCE_FUNCTIONAL PBE
         &END PAIR_POTENTIAL
       &END VDW_POTENTIAL
     &END XC
     &POISSON
       PERIODIC  XYZ
     &END POISSON
   &END DFT
   &SUBSYS
     &CELL
       A     1.2420000000000000E+01    0.0000000000000000E+00    0.0000000000000000E+00
       B     0.0000000000000000E+00    1.2420000000000000E+01    0.0000000000000000E+00
       C     0.0000000000000000E+00    0.0000000000000000E+00    1.2420000000000000E+01
       MULTIPLE_UNIT_CELL  1 1 1
     &END CELL
     &COORD
O    3.7990448567184401E+00   -4.7660803233789863E+00    5.5198202801966856E+00
H    4.0207279714717084E+00   -5.3766558141539660E+00    6.2736391217038525E+00
H    3.1341526457933715E+00   -4.2292543216838965E+00    6.0077180795257892E+00
O   -3.5264809828810195E+00    1.7358931881632429E+00    4.3011535691731728E+00
H   -3.6261017469759000E+00    7.8175609871443430E-01    4.1838957249529152E+00
H   -3.6435567233985973E+00    1.7595650091108408E+00    5.2854134578123126E+00
O    4.4799579844577337E+00    2.9534501021357698E+00   -7.0951277494467053E+00
H    3.5266250803299237E+00    3.1611724896296316E+00   -6.8923723415568059E+00
H    4.4609338807250793E+00    2.8794193664516605E+00   -8.0377840464113426E+00
O   -2.5846540628327070E+00   -2.0741632970311238E-01   -3.3890997822951161E+00
H   -2.0534355343028836E+00    3.0419375408749844E-01   -2.8080376740470285E+00
H   -2.0716664462710148E+00   -7.8170738940733553E-01   -4.0307045519182934E+00
O   -3.7719735389072491E+00   -7.7197185493960720E+00    5.6215279934287388E+00
H   -4.7370630386062063E+00   -7.6075681755710063E+00    5.8105805070007959E+00
H   -3.7880414171731442E+00   -7.4931755828879805E+00    4.6354024286606661E+00
O   -6.6798458460049517E+00   -8.8343874423500682E-02    2.2907156757841669E+00
H   -5.9442638431143013E+00   -4.4685728845734779E-01    2.9335996876135098E+00
H   -6.3347613879296727E+00    7.9584187244138194E-01    2.0356895535648865E+00
O    4.0348215551189872E+00   -5.5479435768636405E+00   -4.4866881950922927E-01
H    3.3239104504516224E+00   -5.6353166841072646E+00    2.3742721119946106E-01
H    3.8467740560906005E+00   -4.7278816593980499E+00   -8.8141294456012853E-01
O   -2.6626091548798079E+00   -3.0832332480148472E+00   -1.2320270048909139E+00
H   -3.4181241652766099E+00   -2.5375204921766352E+00   -1.5831036050484777E+00
H   -2.1023035606854377E+00   -2.3751422355756979E+00   -9.1634131183789336E-01
O    5.4084668886982250E+00   -3.2179040648187791E+00    3.0945162895694298E+00
H    4.6391943479354660E+00   -3.1780969802699519E+00    3.6790160104565812E+00
H    5.0395284494105193E+00   -2.7980902589603440E+00    2.2795185605587034E+00
O    2.0426922191122112E+00    3.8145703623523821E+00   -6.7197540808024945E+00
H    1.3632853851130253E+00    3.1031869110984251E+00   -6.8111876630632162E+00
H    1.8856301340050283E+00    4.1331589798864092E+00   -5.8012309131900475E+00
O    4.0529647482502416E+00   -3.9104655505387291E+00   -3.0516450568935527E+00
H    3.2196916546949184E+00   -3.8282851845363868E+00   -3.6520460705680571E+00
H    4.2670926466127117E+00   -3.0535925638072445E+00   -2.6970068352597347E+00
O    2.0527968794803155E+00   -1.8090361971084681E+00    1.0364886263023632E+00
H    1.8966066234409173E+00   -2.4729180471110070E+00    1.7544525365231489E+00
H    1.5756950979958613E+00   -2.1827119214412152E+00    1.9076181478614637E-01
O    6.8972910016572742E-01   -5.7554097091920600E+00   -5.0009458061922185E+00
H    1.3059854450154380E+00   -6.4879272868550979E+00   -4.9126500883094018E+00
H    3.3844862575819978E-01   -5.9031753814281593E+00   -5.9005980113618017E+00
O   -7.5414548112256794E+00   -8.6629008888372834E+00   -3.2883293937120608E+00
H   -7.6669819431551893E+00   -9.6467199791214142E+00   -3.1841731095562626E+00
H   -7.0766925694573208E+00   -8.2326090689585207E+00   -2.5687337814875253E+00
O    2.9626703640674004E+00   -1.6902899724369680E+00    5.1962380973462539E+00
H    3.8601580509787716E+00   -1.7594027161998471E+00    5.6596183764218342E+00
H    3.2011554301991088E+00   -9.0405102335063936E-01    4.5859299049611355E+00
O   -7.2036448745522161E-02    1.8535985723494706E+00   -6.7417291916423894E+00
H    2.0908396879584787E-01    1.0490338307849549E+00   -6.3140351028696839E+00
H   -4.4835798904116625E-02    1.5986713209961725E+00   -7.7150877816584869E+00
O    1.4303910847185746E+00   -3.0862512275052749E+00    3.6478645095973636E+00
H    2.0430995847582847E+00   -2.6523884537811537E+00    4.3204340662612939E+00
H    9.9291091151874411E-01   -3.8254962069753633E+00    4.0946880670473940E+00
O   -2.3333478747405110E+00    2.7847082466245032E+00    2.2130800203428285E+00
H   -1.6266441250388783E+00    2.1024753853933169E+00    2.1139142695165609E+00
H   -2.7181024896904442E+00    2.5193153628104974E+00    3.0838117370221259E+00
O    9.2699578676565419E-01   -6.1723369957090246E-01   -5.6438980991746881E+00
H    1.7773101673651985E+00   -8.6774804066451927E-01   -6.0972706363588340E+00
H    1.1381111567142412E+00   -4.0063837085074649E-01   -4.6897045488974900E+00
O   -1.1126876011202418E+00   -7.2813630087219527E-01    1.4483477963311797E-01
H   -9.1084680627290615E-01    2.2468531256426860E-01   -1.3159311963588577E-01
H   -1.1483526186577351E+00   -8.1252536345850013E-01    1.1280741037364657E+00
O   -3.8924570140726593E+00   -8.9668294767524372E+00   -3.0556081432974755E+00
H   -4.4083602376078641E+00   -8.1573519653587141E+00   -2.9309136695000180E+00
H   -2.9795250109480751E+00   -8.5366839120046567E+00   -3.0797867115764257E+00
O    4.9681140715928382E+00    4.6387203805875936E+00    2.2022083756774262E+00
H    4.6682568971082850E+00    4.1407514977812028E+00    1.4398109087771342E+00
H    4.2623922479832599E+00    5.2208322794078992E+00    2.5726789344120662E+00
O    4.2229202043956962E+00    1.0443100584703573E+00   -3.1921127149425668E+00
H    4.5978902450160257E+00    9.9873008631829996E-01   -4.0800717937084841E+00
H    4.5953118463477649E+00    3.1101137824644537E-01   -2.6488055764874798E+00
O   -5.2003244534923025E+00   -6.3355424613594726E+00   -2.7349235381950026E+00
H   -5.3786820925879253E+00   -5.7734233242166999E+00   -1.9584997452887916E+00
H   -5.8733704301538481E+00   -6.0821823263518198E+00   -3.3658063295233718E+00
O    4.8234411489775679E+00   -2.1027454638596446E+00    6.8863987406168858E-01
H    5.1864798618771717E+00   -1.3416629909635212E+00    1.1236219907171314E+00
H    3.8642699614669795E+00   -2.1040490592840531E+00    8.5155315498748285E-01
O    2.1900672858594059E+00    9.6135432784112507E-01    1.6985620518577966E+00
H    2.8659542085661194E+00    1.5630030504965284E+00    1.3659224487679920E+00
H    2.2987536844572585E+00    3.9188587676850031E-02    1.3811137680835424E+00
O   -5.7299915132567190E+00   -5.1017099088731879E+00   -3.7935535202422893E-01
H   -6.6729006819619388E+00   -5.4392147743320916E+00   -1.9174727593324864E-01
H   -5.8728231362731238E+00   -4.1245289643070011E+00   -4.2553085466544399E-01
O   -4.8384302792410248E+00    4.6335110236466468E+00    2.6025977165689964E+00
H   -5.8329879463122376E+00    4.7375035484011709E+00    2.4855181474708146E+00
H   -4.5670672836023618E+00    3.7844119843914017E+00    2.1358635940933701E+00
O    5.4173153412153505E+00    8.3570038100363142E-01   -5.6255731294073792E+00
H    6.3682106423673464E+00    1.0558387808469769E+00   -5.6176770124234183E+00
H    5.0945665823553030E+00    1.6676977973446589E+00   -6.2063997047038217E+00
O    7.5611199414347319E-01   -1.9008290806160064E+00   -1.2412854354990392E+00
H    5.2345362914615723E-01   -2.7950144813203939E+00   -1.6024212972245959E+00
H   -2.4057281879510423E-02   -1.6053595614463916E+00   -7.2087854384460959E-01
O    3.8832842561514078E+00    2.6050570254671332E+00    1.5419261218740893E-01
H    4.5784258412163537E+00    2.3825921798303198E+00   -4.7291031503824482E-01
H    3.1911689961855068E+00    3.0973839635189244E+00   -3.3781872214387088E-01
O   -1.0512867099793053E+00   -1.4114595256891844E+00    2.9094766037007127E+00
H   -2.6956766204717220E-01   -1.9437664764051212E+00    3.3131532005280269E+00
H   -1.8814222629163326E+00   -1.9671554476752058E+00    2.9610626184941444E+00
O    2.0260687402230273E+00   -5.5709034828536304E+00    1.3612047969294845E+00
H    1.2754857051930393E+00   -6.1977750867710757E+00    1.0720656935575790E+00
H    2.1620554517481532E+00   -5.8625138105719792E+00    2.3019385769302594E+00
O   -6.5252058569834370E-01   -3.8099440473385489E+00   -2.8165127719604497E+00
H   -1.4960291352871760E+00   -3.8686040664824035E+00   -2.3321948691366954E+00
H   -5.6249150707070261E-01   -4.5602295199573009E+00   -3.3806484442351237E+00
O   -5.2632617225310678E+00    2.1160693401108235E+00    1.4777190858078564E+00
H   -4.3744183349581993E+00    1.9497349237698220E+00    1.8297520746991740E+00
H   -5.0873510582438870E+00    1.9411047933997085E+00    4.7086114413030455E-01
O    1.9866107793506014E+00   -3.3969047107680530E+00   -5.2704985130049549E+00
H    1.4867688033514093E+00   -4.2741514342816300E+00   -5.0342889411064000E+00
H    1.4193198803121225E+00   -2.7259889714581740E+00   -5.6809737424538200E+00
O   -1.1738783061644220E+00    3.9072949351157789E+00   -3.3558125366711025E+00
H   -1.0047361282570069E+00    3.9519421630164122E+00   -4.3354743403254412E+00
H   -7.6373775235750663E-01    4.7399792518835957E+00   -3.1268399529269093E+00
O   -5.4804486068781717E+00   -5.0000097099630691E+00    4.2553222034416134E+00
H   -5.9875419267442247E+00   -4.4258230986748188E+00    3.6275983869844666E+00
H   -5.0035628410689945E+00   -5.4827910020220667E+00    3.5758806367503606E+00
O    2.9803044241302841E+00    5.8276702360032679E+00    3.5855042386387650E+00
H    3.0812128543679069E+00    6.5118344296866226E+00    4.3102317334220581E+00
H    2.3835603125637785E+00    5.1474938003860267E+00    4.0103384473067436E+00
O   -4.0486117056362119E+00    1.5470910229476666E+00   -5.1029420159441852E+00
H   -3.6488393679978146E+00    8.5461982520297564E-01   -4.4661735304369676E+00
H   -3.9782187690304407E+00    2.3703673075949796E+00   -4.4843788331423902E+00
O    3.4512192341852708E+00    5.6952677595729662E-01    3.9990478092981054E+00
H    3.0405595922349415E+00    7.8465518906482290E-01    3.0883232865450512E+00
H    4.4319264165503167E+00    4.7839752151520037E-01    3.7935278609873819E+00
O   -4.6094430901796999E+00   -1.0517068522315838E+00    3.9837539425234856E+00
H   -5.1639209932005619E+00   -1.3070256182202511E+00    4.7549817350140691E+00
H   -4.2185775729248380E+00   -1.9023256432725970E+00    3.6480067246344912E+00
O   -2.0221322240808190E-01    1.2615242939125699E+00    3.1717259604013979E+00
H    6.1733608584660693E-01    1.2132859407512138E+00    2.6684634319829881E+00
H   -5.1555852736239516E-01    3.3361697219846781E-01    3.1948347961619512E+00
O   -1.9633397332480782E+00    4.9765540323215367E+00    5.5454056398650942E-01
H   -2.2748796198006662E+00    4.1496764312239938E+00    9.8419036078990163E-01
H   -2.5895910875924333E+00    5.6847664323666409E+00    7.2636308928205329E-01
O   -1.2549193371446064E+00   -1.8955382985824656E+00   -4.9276011407943496E+00
H   -9.3061249475885599E-01   -2.4723412315287070E+00   -4.2004173719105857E+00
H   -3.9186970475925581E-01   -1.4364230502176001E+00   -5.2059156440104903E+00
O   -5.1738757590814117E+00    1.8470103285836594E+00   -1.3373346138321482E+00
H   -4.6403380843929343E+00    2.4648863954889388E+00   -1.8578568194742224E+00
H   -5.2024079289131455E+00    1.1104284084135279E+00   -1.9140984170284214E+00
O   -7.3445436373975514E+00   -1.2887211205996243E+00   -1.9266853186764776E+00
H   -6.3825199334193439E+00   -1.4060592747566272E+00   -2.2073759639697412E+00
H   -7.3660426673371022E+00   -1.4886428852075524E+00   -9.7199091498745227E-01
O   -4.6944467474328921E-01    1.4305931995136159E+00   -1.6748608150887352E+00
H   -6.7285918960452473E-01    2.2350260195254630E+00   -2.1807164622785598E+00
H    2.1888693017548108E-01    1.0255907921765202E+00   -2.2730173177289257E+00
O   -6.6818144737798249E-02   -6.4861391535448227E+00   -1.0964981302394659E+00
H   -5.4940410512436720E-02   -5.5188064590055053E+00   -1.0120255555323114E+00
H   -7.6721162949905330E-01   -6.8043689202660627E+00   -4.2649234947537157E-01
O    5.7077406089173559E+00   -1.7027297397593113E+00    6.0206840804572348E+00
H    6.0455481829904318E+00   -2.4214595199425819E+00    6.5610377265903894E+00
H    5.8681294476033274E+00   -8.8792030713963011E-01    6.5745835421552599E+00
O   -2.6328165831741597E+00   -5.8090273693231573E+00   -4.1803618126844961E+00
H   -2.7624315216136672E+00   -6.5814561150190540E+00   -4.7684403469629100E+00
H   -3.5606204668039361E+00   -5.6344885807023051E+00   -4.0038146347767540E+00
O   -4.9544675151655566E+00   -1.3999620599854212E+00   -3.2088822441428100E+00
H   -5.1395718849920744E+00   -2.2090651118520879E+00   -3.7393166436444116E+00
H   -4.0249879130269512E+00   -9.7408177419764430E-01   -3.3346924914114742E+00
O    2.2644555939337647E+00   -8.0873089247841623E+00   -1.2623656808842365E+00
H    1.2683822486623717E+00   -8.0517654004152881E+00   -1.0698963204778642E+00
H    2.5800140368001383E+00   -7.1557251335956380E+00   -1.0911596728830844E+00
O    6.7957208500016959E+00   -3.9020032724174016E+00   -5.3339451165827425E+00
H    7.5542897808701994E+00   -4.2143616275220879E+00   -5.8047093812405057E+00
H    6.1091438020560300E+00   -4.4424999898548689E+00   -5.7501302690430371E+00
O   -3.3615222623388430E-01    4.9911541832040172E+00    2.9715429288865711E+00
H   -7.6689138605754914E-01    4.3256106570223070E+00    3.5590138094639596E+00
H   -8.9502584839220722E-01    4.8891864331376400E+00    2.1829731345000578E+00
O   -2.8409632403269383E+00   -3.9827977100239602E+00    6.2208206164416984E+00
H   -2.6678742588934523E+00   -4.5133733516002694E+00    7.0367175410438936E+00
H   -2.4385795963104187E+00   -3.1262052568523626E+00    6.3709012337961530E+00
O   -2.8204553494142686E+00   -3.5070464483436687E+00    3.4965437433077002E+00
H   -2.9716751858222925E+00   -3.8659962136513424E+00    4.3567862003637536E+00
H   -3.0776283828194804E+00   -4.1321951042721601E+00    2.8091060415734028E+00
O    2.4789659141756593E+00    4.7043487480715962E+00   -3.9949301915544355E+00
H    3.4285295992840621E+00    4.5610416156564098E+00   -3.7594651689691063E+00
H    2.0153962152572675E+00    4.3779261004477474E+00   -3.1700588919781785E+00
O    1.6297983885041443E+00    7.5041549294843912E-02   -3.0843158025919393E+00
H    1.8139784198829836E+00   -6.5114949095949026E-01   -2.4338144933124495E+00
H    2.4531350481569292E+00    6.1086190969851162E-01   -3.0707033107738133E+00
O   -1.2293301579948914E+00   -8.1995719464292200E+00   -6.3084221892280654E+00
H   -1.0233324290943306E+00   -9.1474896730052233E+00   -6.5096316143086614E+00
H   -2.1960185462916626E+00   -8.1025202792745432E+00   -6.5024546302864081E+00
O   -4.4395599275926040E-01    8.3226507912676126E+00    6.1880742705573122E-01
H    3.2630317646794998E-01    8.2142414208823293E+00    1.2453251219424137E+00
H   -1.0739065921140500E+00    7.9564776852450088E+00    1.2804562061649298E+00
O    5.8418020410659324E+00   -6.7413972988930535E+00   -6.6464581191033218E+00
H    5.4440640259355293E+00   -7.5470611254573230E+00   -7.0813073973900629E+00
H    5.9691339427643966E+00   -6.1034834032962966E+00   -7.3575243399549519E+00
O   -3.3054511116322577E-01   -5.2521309714552933E+00    4.6650827639905428E+00
H   -3.4386234293018425E-01   -5.9711344808254010E+00    3.9747748102208935E+00
H   -1.2406656877664270E+00   -5.0655482079536238E+00    4.9702610292797891E+00
O   -3.7843823375234615E+00   -5.5358344933324091E+00    1.8660854337121933E+00
H   -4.0573037639072691E+00   -6.5104859874980470E+00    1.9886631997742130E+00
H   -4.3753425743231231E+00   -5.3167480515431267E+00    1.1543150201295436E+00
     &END COORD
     &VELOCITY
          -3.2783106507053847E-04   -1.1870388608301723E-04    1.3258555684903488E-04
          -2.0667723569577911E-04    7.1130698955355074E-04    1.4078647475593685E-04
           1.5536549253495073E-04    1.3693016254444240E-03    2.5483543166829721E-04
           3.5412330489562419E-05   -1.1143416334380152E-04    2.6406537843175952E-04
          -1.7345051897330397E-03   -8.6450057018194206E-04   -7.0226513968409837E-04
           1.6913790135848688E-04    4.1472388386858887E-04   -1.4321925219137361E-03
          -3.2163459227756532E-04    1.3898999778266257E-04    2.3827293803892210E-05
          -1.1322369582786359E-03   -1.4229492438930285E-04   -5.5839762443802112E-04
          -2.2440907404308681E-04    1.5290743766811912E-04    1.7115114443329979E-04
          -7.7552984212950917E-05   -4.3228032125758813E-04    1.2667129041247697E-04
           3.4168325669450090E-04   -1.0723207033315736E-03   -5.7111712645287430E-05
          -5.0984007243046376E-04   -8.0598834816302878E-04   -6.6441618682784524E-05
          -1.6864866270071611E-04    2.2156953124892141E-05    1.4258759141301900E-05
           2.6384923785103226E-05   -8.2297110247516272E-04   -2.0529843773192560E-04
           4.8110414188994673E-04    5.1254406225296665E-04   -1.6597861548784600E-03
           1.5194961224314035E-04   -6.5308177561740177E-06   -2.4001295392072838E-05
           2.6524412999895895E-04   -6.6369991395706434E-04   -1.1664484130155970E-03
          -3.0408764876032685E-04   -1.7790830251872763E-05   -1.8972222149752453E-04
           8.0643182374893772E-05    1.1544953688316847E-04   -1.1240966066511613E-04
           7.5099492398162499E-04    1.7348462040463566E-04    1.7962411635518462E-05
          -3.7888754698318689E-04    1.9186098549298815E-04   -1.4178351992711377E-03
          -3.6150536958066658E-05    3.6617187184830724E-05   -6.6883382805317315E-05
          -3.7133440091796779E-04   -9.6560644413445972E-04    7.8851131615763435E-04
           6.4561300540215178E-04    1.4316798384007982E-03   -1.1847814887245075E-03
          -1.9296764521271382E-04   -2.5118034151371205E-04   -4.8079722367747790E-05
          -1.1264567055027654E-03    4.1550725481985762E-04    1.1478619492916165E-03
          -7.1753871008874192E-04    5.2119662619899384E-04    4.4337124046280366E-04
           1.0546210205703280E-04    2.8107058287759809E-05   -3.7201894749611109E-04
          -9.6047638762789662E-05    2.7813409838326348E-04    1.8443361239212528E-04
           1.2424849282461174E-03    2.0023299269634210E-04   -1.1475560386310978E-04
          -5.1591623821234918E-05   -1.1079201039580105E-04    2.8375322400724758E-05
           1.0659981478003129E-03    6.2306209771979858E-04    8.9354629165491425E-04
          -8.4375307613787393E-04    1.0757779074008939E-04    7.4824630058937960E-04
           4.1661985936011558E-04    1.0460274059896567E-04    4.8589821663188753E-05
           1.4808033771648201E-03    4.8953964209113882E-04    7.3769819466998159E-04
          -7.6261630027009886E-05   -2.5988966110751413E-04    1.3154771308274663E-03
          -1.9348083761786902E-04   -1.0976681419935405E-04   -4.0502783131369451E-05
          -1.3389126115837782E-03    2.6412741636845736E-04    4.6316129767180427E-04
          -3.8216749873610638E-04   -6.3086084832560813E-04    1.2496358298076703E-03
          -1.1750072569341799E-04    8.2239497219360868E-05   -2.5140152139546538E-04
           1.3746799614175016E-03    3.2830129760915761E-04    4.1457501643057064E-04
           2.0960747172391408E-04    8.1281724868605208E-04   -1.2511530157007650E-03
          -4.7704589732872585E-05   -1.6404268704455497E-04    1.2985661189715745E-04
          -5.9697535796286261E-04   -9.3796392622667857E-04   -2.1079294959803682E-04
          -1.5956169253603003E-03   -6.9008157902187151E-04    9.1591041962221233E-04
           2.1578000530480987E-04   -1.0437369728518499E-04   -3.6312974353811233E-04
          -3.9650098368753110E-04    3.3772524230976479E-04    2.8832710041620823E-04
          -1.0441029179312326E-03   -4.4413499531995645E-04    1.2991579447226144E-03
           1.2151207250855004E-04   -4.3899830792240173E-05   -1.3273869549744810E-04
           3.0370845459199373E-05   -6.8978588769072154E-04    1.7477853551024341E-04
          -3.7186994701466221E-05    2.0792990630354676E-03    5.1788138418014666E-04
          -1.1545764045689118E-04   -3.1885310224094961E-06   -1.4186153775139174E-04
           5.9111453887512617E-04   -5.3657314655655198E-04    6.6469706960302865E-04
           1.2476384248743659E-03   -7.5066547596601126E-04   -1.0148268107407607E-04
           2.3455152183973348E-04    2.8492039325686428E-04   -1.5016106774986488E-04
           7.1266491446402654E-04   -6.7291323933334137E-04   -7.2348543445441824E-04
           4.3203617707645675E-04   -1.2760961872441557E-03    1.2534066501039047E-04
           2.8250969869681255E-04   -5.1921946566862970E-05   -3.6021950607544680E-04
           1.0618454573711328E-03   -3.3709508916349992E-04   -7.0295953794051393E-04
          -6.9764010996845418E-04   -7.7026796686433864E-04   -1.7094869008369971E-03
          -4.6061406900897340E-05    3.7837177249321421E-04    3.5159440604281026E-04
           2.2526607052521266E-04    1.9909458691991117E-05    1.2272856603149503E-03
           1.3805458158641645E-04   -4.7350919939794737E-04    5.4432045160425848E-04
          -4.9535933276712923E-05    3.7004041363919042E-04    1.8210856534524669E-04
           2.6413344987254639E-04    7.6714303485989212E-05    5.0688071697409545E-05
           3.3218734548491250E-04    1.2494386603447622E-03   -4.0727871912450209E-04
          -4.1315620415118805E-07    1.8970831711923272E-04    6.1959274063499279E-05
           2.8037879893309038E-04   -7.1791949404500816E-04    1.0167053457442608E-03
           1.7778032182921670E-03   -4.5401825098693262E-05   -3.4502133911459203E-04
           1.8777493352416616E-06    4.0614229920387092E-05   -2.4643646519085632E-04
           6.6133248021994068E-04    1.1776584992672847E-03   -1.3368401005934209E-03
           5.5168347859792070E-04   -2.4580819916086294E-05   -1.2920540773336000E-03
          -9.3984179763069542E-05    2.9115695944779751E-04   -2.3539161940521315E-05
           5.0001316028686288E-04    4.7687704809280572E-05   -1.6809651784690740E-04
           1.4823839838509753E-04   -6.7651392467429027E-04   -4.3548192379889099E-04
           4.4811715333604269E-04    1.1403141831301328E-04    1.5914671057779654E-05
          -1.3811949048067249E-04   -1.0777684583972631E-04   -4.6178072204602384E-04
          -1.1253960128376767E-03   -2.7195203499524639E-04    2.3662111512708368E-04
           8.5916209703947141E-05   -9.9292004749812357E-05   -5.2657061992556576E-05
           1.0423933551458402E-03    1.5593770043753538E-03    4.6591870788595461E-05
          -2.0434038081103511E-06   -9.3485432494067825E-06    1.4327206174685842E-03
           1.5399477387023557E-04   -5.1764013480397023E-05   -1.7610792424776128E-04
          -4.3796707708089748E-04   -3.8854124292958546E-05    8.9852535433240462E-04
          -7.6581677207270313E-05    1.9430020702116354E-03    2.3328914569838898E-04
          -2.9110799385650467E-04    5.5137738733699440E-05   -1.8458959996452807E-04
          -1.6571008026914401E-03   -8.2288419668408890E-04   -4.9624464542580575E-04
           8.3432161440880395E-05    1.2915639943918754E-04    4.3272401327950656E-04
           7.1664645685870300E-05    3.4757420522600262E-05    1.8612614754637280E-04
           3.2044229299934212E-04   -9.6669512525783053E-04    3.3877796902620337E-04
           9.4530828011442553E-04    1.1669838004040247E-03   -1.2371103597260042E-04
          -5.8827296264202330E-05   -6.6098773957605175E-05    3.9979246880281747E-04
          -8.7710458871932055E-04   -1.3956478121478238E-04    4.5103223863714321E-05
          -3.7229251918081437E-04   -5.5399423285860787E-04   -1.8288642167326691E-04
           2.5639424908899933E-04   -1.6349200625001437E-04   -2.1166392985432072E-04
           2.6660619405257762E-04    2.8489271710852021E-04    5.7427238156808596E-04
           5.1113068482498281E-05   -4.3411212231381685E-04   -4.9168910260948212E-04
          -3.3757050377122361E-04    2.9704640974770557E-04    4.7193463165784982E-05
           6.0975774956324301E-04    2.1200889997851475E-04   -2.1414115058872598E-03
           3.3727901020260916E-04    6.8857316333566980E-04   -1.4936947720129467E-04
          -9.9642906896773016E-05    1.3989650692348559E-04    1.1883781675549641E-04
           9.3577560521984746E-04   -6.8024954273420704E-04    9.9864388663291012E-04
          -8.4022410669757405E-04   -4.0476986175710125E-04    3.8514410936229214E-04
           1.8126976221285472E-04    2.3380316824124064E-04    2.6671069835776547E-04
           8.1154979247845371E-05   -9.6554928850230032E-05   -3.5501569688949026E-04
          -1.1248503923053298E-05    3.0384559241579375E-05   -1.3898688445211057E-03
           2.0197177384055227E-04    8.8914133872131275E-06    2.9695375673759587E-05
           3.2212832742776240E-04    1.1658905963062966E-04   -7.3296519994325946E-04
           8.2830690401392690E-05    6.7935942147354436E-04   -9.6450372051811665E-04
           1.3788102661771318E-04   -1.5111896022498852E-04   -3.0225580383431421E-06
           7.0682625496437798E-04   -4.9982700022665997E-05    9.0945585731112551E-04
          -5.5453176844456897E-04    5.7292364468260919E-04   -5.8374832243731657E-04
          -2.6462461513291133E-04    6.2045322450440970E-06   -2.2591080807752076E-04
           1.1375312667128460E-03    1.1392238449845324E-03    4.7179034151619104E-05
          -1.5631773465594201E-03   -1.3832679450809693E-04    1.3845990698568787E-04
          -4.8339151245148535E-06    1.9458237118510341E-04   -2.7533793735503480E-05
          -1.4215411066352849E-03   -6.8749326816734647E-04    2.5325903735792164E-04
           1.3771582199800786E-04    1.8040447217780966E-05   -5.5998171265118945E-04
          -4.2596145674449029E-05    5.9299224366007106E-05   -1.8141643495845952E-04
          -4.0502845062713152E-05    2.1762290861798429E-04    3.1573230930150400E-04
          -1.4197215905805262E-04   -2.7761117844368939E-04   -9.8498095723280050E-04
           4.9170737451855068E-06   -1.6037337401521250E-04   -1.2598190791680773E-04
           6.4420493500795865E-04    1.1186861038857728E-03   -3.6164306192585440E-04
          -8.1389167042593945E-04    3.5202651036964761E-04    1.7391362127337116E-03
           2.2132425743058406E-05   -1.0053230046986250E-04   -1.1855155431040534E-04
           4.9656198742579658E-04   -1.0301987150084717E-03    1.1917166424327032E-03
           9.0712644016216978E-05   -9.3267985044434684E-04   -9.4974009743899624E-04
           1.1527467811092427E-04   -7.1422061397702523E-05    1.8961332298695358E-04
          -2.9850381775867223E-04   -1.3280050127917797E-03   -7.1046927855101963E-04
          -1.0321715704346673E-03   -3.3905150367468030E-04    9.6335221676688504E-04