 # Version information for this restart file 
 # current date 2022-01-03 14:36:59.860
 # current working dir /user/pubo1141/simulations/aiida_tests/cp2k_8.1/cell_opt_low
 # Program compiled at                             Thu May 27 13:34:22 CEST 2021
 # Program compiled on                                                   hpcl001
 # Program compiled for                                            carl-mkl-ompi
 # Source code revision number                                       git:0b61f2f
 &GLOBAL
   PRINT_LEVEL  LOW
   PROJECT_NAME aiida
   RUN_TYPE  CELL_OPT
 &END GLOBAL
 &MOTION
   &CELL_OPT
     OPTIMIZER  BFGS
     MAX_DR     1.0000000000000000E-02
     MAX_FORCE     1.0000000000000000E-02
     RMS_DR     1.0000000000000000E-02
     RMS_FORCE     5.0000000000000003E-02
     STEP_START_VAL  3
     TYPE  DIRECT_CELL_OPT
     PRESSURE_TOLERANCE     1.0000000000000000E+02
   &END CELL_OPT
 &END MOTION
 &FORCE_EVAL
   METHOD  QS
   STRESS_TENSOR  ANALYTICAL
   &DFT
     BASIS_SET_FILE_NAME BASIS_MOLOPT
     BASIS_SET_FILE_NAME BASIS_MOLOPT_UCL
     POTENTIAL_FILE_NAME GTH_POTENTIALS
     &SCF
       MAX_SCF  150
       EPS_SCF     1.0000000000000000E-04
       SCF_GUESS  RESTART
       &MIXING  T
         METHOD  BROYDEN_MIXING
         ALPHA     2.9999999999999999E-01
         NBUFFER  20
       &END MIXING
     &END SCF
     &QS
       EPS_DEFAULT     1.0000000000000000E-08
     &END QS
     &MGRID
       NGRIDS  4
       CUTOFF     2.0000000000000000E+02
       REL_CUTOFF     4.0000000000000000E+01
     &END MGRID
     &XC
       DENSITY_CUTOFF     1.0000000000000000E-10
       GRADIENT_CUTOFF     1.0000000000000000E-10
       TAU_CUTOFF     1.0000000000000000E-10
       &XC_FUNCTIONAL  NO_SHORTCUT
         &PBE  T
         &END PBE
       &END XC_FUNCTIONAL
     &END XC
     &POISSON
       PERIODIC  XYZ
     &END POISSON
     &KPOINTS
       SCHEME MONKHORST-PACK 4 4 4
     &END KPOINTS
   &END DFT
   &SUBSYS
     &CELL
       A     6.6370223591936872E+00    0.0000000000000000E+00    0.0000000000000000E+00
       B     3.3062612320077380E+00    5.7551683068182617E+00    0.0000000000000000E+00
       C     3.3062612755084850E+00    1.9088692797891400E+00    5.4293957910142527E+00
       PERIODIC  XYZ
       MULTIPLE_UNIT_CELL  1 1 1
     &END CELL
     &COORD
Cs    3.3109342992971635E+00    1.9151897978430821E+00    1.3567676904332495E+00
Cs    9.9386203033761973E+00    5.7488723020115051E+00    4.0726437565274995E+00
Cs    6.6247638091962013E+00    3.8320005306630986E+00    2.7146864111456543E+00
Sb   -1.0602948533187373E-06   -6.0703982005654324E-06   -4.0665791923898690E-06
     &END COORD
     &KIND Cs
       BASIS_SET DZVP-MOLOPT-SR-GTH
       POTENTIAL GTH-PBE-q9
       &POTENTIAL
 3 6
  0.5400000000000000E+00 2  0.3331331676000000E+02 -0.2921216700000000E+01
 4
  0.4618956800000000E+00 2 -0.3322927000000000E+01  0.2455653380000000E+01
 -0.3170234880000000E+01
  0.3663586000000000E+00 2 -0.4950764050000000E+01  0.8403897700000000E+00
 -0.9943625900000000E+00
  0.7615019300000000E+00 1  0.1984072300000000E+00
  0.5970150300000000E+00 1 -0.1550566930000000E+01
         # Potential name:  GTH-PBE-Q9  for symbol:  CS
         # Potential read from the potential filename: GTH_POTENTIALS
       &END POTENTIAL
     &END KIND
     &KIND Sb
       BASIS_SET DZVP-MOLOPT-SR-GTH
       POTENTIAL GTH-PBE-q5
       &POTENTIAL
 2 3
  0.5900000000000000E+00 1  0.7928520840000000E+01
 3
  0.5561363600000000E+00 3  0.1430477900000000E+01  0.1261425990000000E+01 -0.9232335300000000E+00
 -0.3130133400000000E+01  0.2383778720000000E+01
 -0.1892065700000000E+01
  0.6227550700000000E+00 2  0.5614723300000000E+00  0.3048452200000000E+00
 -0.3606977300000000E+00
  0.8894857600000000E+00 1  0.2708686400000000E+00
         # Potential name:  GTH-PBE-Q5  for symbol:  SB
         # Potential read from the potential filename: GTH_POTENTIALS
       &END POTENTIAL
     &END KIND
     &TOPOLOGY
       NUMBER_OF_ATOMS  4
       MULTIPLE_UNIT_CELL  1 1 1
     &END TOPOLOGY
   &END SUBSYS
 &END FORCE_EVAL
