 # Version information for this restart file 
 # current date 2021-07-05 06:41:07.059
 # current working dir /nfs/data/pubo1141/aiida-test_profile/4c/3f/b512-5acf-4006-b21b-e5492cf8c380
 # Program compiled at                             Mon Jun 14 11:36:29 CEST 2021
 # Program compiled on                                                   hpcl001
 # Program compiled for                                            carl-mkl-ompi
 # Source code revision number                                       git:310b7ab
 &GLOBAL
   PROJECT_NAME aiida
   RUN_TYPE  CELL_OPT
 &END GLOBAL
 &MOTION
   &CELL_OPT
     OPTIMIZER  BFGS
     MAX_ITER  15
     MAX_FORCE     1.9000000000000001E-04
     STEP_START_VAL  6
     KEEP_SPACE_GROUP  T
     EPS_SYMMETRY     1.0000000000000000E-02
     TYPE  DIRECT_CELL_OPT
     &BFGS
       TRUST_RADIUS     3.5000000000000003E-01
     &END BFGS
   &END CELL_OPT
 &END MOTION
 &FORCE_EVAL
   METHOD  QS
   STRESS_TENSOR  ANALYTICAL
   &DFT
     BASIS_SET_FILE_NAME BASIS_MOLOPT_UCL
     BASIS_SET_FILE_NAME BASIS_MOLOPT
     POTENTIAL_FILE_NAME GTH_POTENTIALS
     UKS  F
     ROKS  F
     &SCF
       MAX_SCF  50
       EPS_SCF     4.9999999999999998E-07
       SCF_GUESS  ATOMIC
       ADDED_MOS  25
       &SMEAR  T
         METHOD  FERMI_DIRAC
         ELECTRONIC_TEMPERATURE     2.5000000000000000E+02
       &END SMEAR
       &MIXING  T
         METHOD  BROYDEN_MIXING
         ALPHA     2.9999999999999999E-01
         BETA     5.0000000000000000E-01
         NBUFFER  4
       &END MIXING
     &END SCF
     &QS
       EPS_DEFAULT     9.9999999999999998E-13
       EXTRAPOLATION  USE_GUESS
     &END QS
     &MGRID
       NGRIDS  4
       CUTOFF     5.0000000000000000E+02
       REL_CUTOFF     7.0000000000000000E+01
     &END MGRID
     &XC
       DENSITY_CUTOFF     1.0000000000000000E-10
       GRADIENT_CUTOFF     1.0000000000000000E-10
       TAU_CUTOFF     1.0000000000000000E-10
       &XC_FUNCTIONAL  NO_SHORTCUT
         &PBE  T
         &END PBE
       &END XC_FUNCTIONAL
     &END XC
     &POISSON
       POISSON_SOLVER  PERIODIC
       PERIODIC  XYZ
     &END POISSON
     &KPOINTS
       SCHEME MONKHORST-PACK 6 6 6
     &END KPOINTS
   &END DFT
   &SUBSYS
     &CELL
       A     6.3329924425705499E+00    0.0000000000000000E+00    0.0000000000000000E+00
       B     3.3392850209698115E+00    5.3847541093884050E+00    0.0000000000000000E+00
       C     3.3392850209698115E+00    1.9279179488960929E+00    5.0297590643398289E+00
       PERIODIC  XYZ
       MULTIPLE_UNIT_CELL  1 1 1
     &END CELL
     &COORD
Cs    1.3589134075960198-104    9.8552558869814463-105    1.7544406713037589-104
Sb    6.4193868424128180E+00    3.5565860948172805E+00   -1.2574397660849572E+00
     &END COORD
     &KIND Cs
       BASIS_SET TZV2P-MOLOPT-SR-GTH
       POTENTIAL GTH-PBE-q9
       &POTENTIAL
 3 6
  0.5400000000000000E+00 2  0.3331331676000000E+02 -0.2921216700000000E+01
 4
  0.4618956800000000E+00 2 -0.3322927000000000E+01  0.2455653380000000E+01
 -0.3170234880000000E+01
  0.3663586000000000E+00 2 -0.4950764050000000E+01  0.8403897700000000E+00
 -0.9943625900000000E+00
  0.7615019300000000E+00 1  0.1984072300000000E+00
  0.5970150300000000E+00 1 -0.1550566930000000E+01
         # Potential name:  GTH-PBE-Q9  for symbol:  CS
         # Potential read from the potential filename: GTH_POTENTIALS
       &END POTENTIAL
     &END KIND
     &KIND Sb
       BASIS_SET TZV2P-MOLOPT-SR-GTH
       POTENTIAL GTH-PBE-q5
       &POTENTIAL
 2 3
  0.5900000000000000E+00 1  0.7928520840000000E+01
 3
  0.5561363600000000E+00 3  0.1430477900000000E+01  0.1261425990000000E+01 -0.9232335300000000E+00
 -0.3130133400000000E+01  0.2383778720000000E+01
 -0.1892065700000000E+01
  0.6227550700000000E+00 2  0.5614723300000000E+00  0.3048452200000000E+00
 -0.3606977300000000E+00
  0.8894857600000000E+00 1  0.2708686400000000E+00
         # Potential name:  GTH-PBE-Q5  for symbol:  SB
         # Potential read from the potential filename: GTH_POTENTIALS
       &END POTENTIAL
     &END KIND
     &TOPOLOGY
       COORD_FILE_NAME aiida.coords.xyz
       COORD_FILE_FORMAT  XYZ
       NUMBER_OF_ATOMS  2
       MULTIPLE_UNIT_CELL  1 1 1
     &END TOPOLOGY
   &END SUBSYS
 &END FORCE_EVAL
