 # Version information for this restart file 
 # current date 2022-01-04 08:41:19.256
 # current working dir /scratch/usr/nichdsas/cp2k-parser-tests/9.1/md_nvt_medium
 # Program compiled at                              Mon Jan  3 14:05:13 CET 2022
 # Program compiled on                                                   glogin4
 # Program compiled for                                          hlrn-gompi-foss
 # Source code revision number                                       git:d8d7100
 &GLOBAL
   PRINT_LEVEL  MEDIUM
   PROJECT_NAME aiida
   RUN_TYPE  MD
 &END GLOBAL
 &MOTION
   &MD
     ENSEMBLE  NVT
     STEPS  5
     TIMESTEP     4.9999999999999994E-01
     STEP_START_VAL  5
     TIME_START_VAL     2.4999999999999996E+00
     ECONS_START_VAL    -1.1028095256884490E+03
     TEMPERATURE     3.0000000000000000E+02
     &THERMOSTAT
       TYPE  NOSE
       REGION  MASSIVE
     &END THERMOSTAT
     &AVERAGES  T
       &RESTART_AVERAGES
         ITIMES_START  1
         AVECPU     4.1884392286092044E+01
         AVEHUGONIOT     0.0000000000000000E+00
         AVETEMP_BARO     0.0000000000000000E+00
         AVEPOT    -1.1033662327812967E+03
         AVEKIN     2.8308815512455576E-01
         AVETEMP     3.1038910593732834E+02
         AVEKIN_QM     0.0000000000000000E+00
         AVETEMP_QM     0.0000000000000000E+00
         AVEVOL     1.2928894580884409E+04
         AVECELL_A     2.3470398570439684E+01
         AVECELL_B     2.3470398570439684E+01
         AVECELL_C     2.3470398570439684E+01
         AVEALPHA     9.0000000000000000E+01
         AVEBETA     9.0000000000000000E+01
         AVEGAMMA     9.0000000000000000E+01
         AVE_ECONS    -9.0405807112947476E-02
         AVE_PRESS     0.0000000000000000E+00
         AVE_PXX     0.0000000000000000E+00
       &END RESTART_AVERAGES
     &END AVERAGES
   &END MD
 &END MOTION
 &FORCE_EVAL
   METHOD  QS
   &DFT
     BASIS_SET_FILE_NAME BASIS_MOLOPT
     POTENTIAL_FILE_NAME GTH_POTENTIALS
     MULTIPLICITY  1
     CHARGE  0
     &SCF
       MAX_SCF  30
       EPS_SCF     1.0000000000000001E-05
       SCF_GUESS  ATOMIC
       &OT  T
         MINIMIZER  DIIS
         PRECONDITIONER  FULL_SINGLE_INVERSE
       &END OT
       &OUTER_SCF  T
         EPS_SCF     9.9999999999999995E-07
         MAX_SCF  5
       &END OUTER_SCF
       &PRINT
         &RESTART  OFF
         &END RESTART
       &END PRINT
     &END SCF
     &QS
       EPS_DEFAULT     1.0000000000000000E-08
       EXTRAPOLATION  ASPC
       METHOD  GPW
     &END QS
     &MGRID
       CUTOFF     4.0000000000000000E+02
     &END MGRID
     &XC
       DENSITY_CUTOFF     1.0000000000000000E-10
       GRADIENT_CUTOFF     1.0000000000000000E-10
       TAU_CUTOFF     1.0000000000000000E-10
       &XC_FUNCTIONAL  NO_SHORTCUT
         &PBE  T
         &END PBE
       &END XC_FUNCTIONAL
       &VDW_POTENTIAL
         POTENTIAL_TYPE  PAIR_POTENTIAL
         &PAIR_POTENTIAL
           R_CUTOFF     1.6000000000000000E+01
           TYPE  DFTD3
           PARAMETER_FILE_NAME dftd3.dat
           REFERENCE_FUNCTIONAL PBE
         &END PAIR_POTENTIAL
       &END VDW_POTENTIAL
     &END XC
     &POISSON
       PERIODIC  XYZ
     &END POISSON
   &END DFT
   &SUBSYS
     &CELL
       A     1.2420000000000000E+01    0.0000000000000000E+00    0.0000000000000000E+00
       B     0.0000000000000000E+00    1.2420000000000000E+01    0.0000000000000000E+00
       C     0.0000000000000000E+00    0.0000000000000000E+00    1.2420000000000000E+01
       MULTIPLE_UNIT_CELL  1 1 1
     &END CELL
     &COORD
O    3.8476523449571123E+00   -4.7572858050839546E+00    5.5115245845274776E+00
H    4.1497688750467443E+00   -5.5056491468484241E+00    6.0683847935870485E+00
H    3.0574142856891577E+00   -4.2852793714456983E+00    5.9390440531958149E+00
O   -3.5402253350684849E+00    1.7506229286990216E+00    4.2923541522524946E+00
H   -3.3923308488365964E+00    7.6122192084084550E-01    4.1612148599187364E+00
H   -3.6132926516188193E+00    1.8605078693837649E+00    5.2190171694537639E+00
O    4.5456227369049049E+00    2.9364709654492809E+00   -7.1008090148461962E+00
H    3.6179751341721218E+00    3.2240598201866164E+00   -6.7885720683933597E+00
H    4.5034151434952845E+00    2.8172408121255965E+00   -8.0457501673143650E+00
O   -2.5785360701602467E+00   -1.3225011917193549E-01   -3.4094899453087089E+00
H   -2.0377144059978911E+00    4.1032370952125569E-01   -2.8178529424964229E+00
H   -1.9113812227585438E+00   -6.4750225922129712E-01   -3.9657431797304725E+00
O   -3.7612751781647003E+00   -7.7162625969845582E+00    5.6315818858479574E+00
H   -4.6675601840473382E+00   -7.4669052285251674E+00    5.9330779566098419E+00
H   -3.8356875331247595E+00   -7.5737707145210846E+00    4.5981656360934027E+00
O   -6.7019957337359388E+00   -8.2861220554711901E-02    2.3103323677972885E+00
H   -6.0574628097447851E+00   -4.0113626353006709E-01    2.9842795718341475E+00
H   -6.2720675019408185E+00    7.6721682191582585E-01    1.9953644491113720E+00
O    4.0181391743713073E+00   -5.5759277303593517E+00   -4.2079929936792476E-01
H    3.3115878232581903E+00   -5.6289378425867573E+00    2.7504291294838151E-01
H    3.8885985801956631E+00   -4.6884479194353892E+00   -8.3151281881583217E-01
O   -2.6708576949909322E+00   -3.0839192551300618E+00   -1.2293555948736721E+00
H   -3.2784731009348751E+00   -2.4928517043320637E+00   -1.7005493999628778E+00
H   -2.1136787674197621E+00   -2.5088166924488680E+00   -6.1932268451512917E-01
O    5.4469281151470765E+00   -3.1793901877087976E+00    3.0960552196850495E+00
H    4.6376570933965118E+00   -3.2479162718423793E+00    3.6944993140113840E+00
H    5.2230696006489632E+00   -2.9639622866542963E+00    2.1363158953303460E+00
O    2.0184499198940511E+00    3.8060650714846536E+00   -6.6620655262876012E+00
H    1.3770270881946487E+00    3.0724805897736558E+00   -6.8197760192857073E+00
H    1.8113229813229736E+00    4.0875976326934031E+00   -5.7405793843037047E+00
O    4.0538238544566187E+00   -3.8994257686877534E+00   -3.0621926940400250E+00
H    3.2831921474224974E+00   -3.7755340300300433E+00   -3.6390884461175288E+00
H    4.3321435234711618E+00   -2.9743342065726570E+00   -2.8927125128400055E+00
O    1.9911703732456920E+00   -1.8367531062048386E+00    1.0233832764696520E+00
H    1.6415785666694518E+00   -2.4879456056886631E+00    1.6750237694150665E+00
H    1.6430063990315751E+00   -1.9673461191292334E+00    1.1436041735467067E-01
O    7.2383887176274175E-01   -5.7477507718415861E+00   -5.0089689076247730E+00
H    1.4318282157472308E+00   -6.3710100862529364E+00   -4.8600287924978192E+00
H    4.2543137375775125E-01   -5.7398823571426920E+00   -5.9181545028360460E+00
O   -7.5227084346099913E+00   -8.6742981035856204E+00   -3.2517552226750563E+00
H   -7.8286284817215073E+00   -9.6036261441206801E+00   -3.1089855912073627E+00
H   -7.1226807184418721E+00   -8.4938123683083528E+00   -2.3915267525347672E+00
O    2.9967200156559355E+00   -1.6392410905018666E+00    5.1746010777225155E+00
H    3.8342030212752052E+00   -1.7514749930662517E+00    5.6695194537923514E+00
H    3.2093996997923955E+00   -8.8513093132518883E-01    4.6032000637673960E+00
O   -9.3981066674307487E-02    1.8627605856179181E+00   -6.7010856623756991E+00
H    2.4851356678245667E-01    1.0300354674734951E+00   -6.3180135358249601E+00
H   -7.9108504512267527E-03    1.7256021883190003E+00   -7.6424884312106220E+00
O    1.3949219369907961E+00   -3.0865100270445960E+00    3.6637438783936584E+00
H    2.0118709927544765E+00   -2.6436372138266893E+00    4.2977354609648284E+00
H    1.0859631661237070E+00   -3.9138054749474036E+00    3.9689922570583596E+00
O   -2.3282066405595367E+00    2.7977935219202053E+00    2.2332326540692948E+00
H   -1.6086213624537962E+00    2.1098694689162745E+00    2.1098585646475159E+00
H   -2.7965698486218988E+00    2.5965913802415868E+00    3.0832178048295287E+00
O    8.8204856087087857E-01   -6.5407493951289075E-01   -5.6103944774677315E+00
H    1.7808054571721077E+00   -8.1324037281487127E-01   -6.0954143079316134E+00
H    1.1758966985808990E+00   -2.4051657644856866E-01   -4.7397617571595196E+00
O   -1.1659508185836664E+00   -7.1870873916100630E-01    2.2045955911836979E-01
H   -1.0883294195555500E+00    2.3040193607122411E-01   -6.1035711710604436E-02
H   -9.9175182802152972E-01   -7.6019376872769462E-01    1.1521247065044209E+00
O   -3.8848294046916139E+00   -9.0050432615243388E+00   -3.1129051416291493E+00
H   -4.4951589798980676E+00   -8.2402528898188194E+00   -3.1462578685698115E+00
H   -2.9514136351878242E+00   -8.6631350126532904E+00   -3.1310574144614471E+00
O    4.9788070674497451E+00    4.5789816263372227E+00    2.1732999987436972E+00
H    4.5821871687594955E+00    4.0917957453971043E+00    1.4196794100544115E+00
H    4.1990040773305610E+00    4.9855029389955305E+00    2.6443519348732032E+00
O    4.2125979079902365E+00    1.0320643193079522E+00   -3.2075179558690210E+00
H    4.6109829830420699E+00    9.2892321051861160E-01   -4.1218526723301379E+00
H    4.4390493108605789E+00    1.9775575957021024E-01   -2.6646120146673198E+00
O   -5.2049429059744057E+00   -6.3435776378949154E+00   -2.6938083039228937E+00
H   -5.4127114218264012E+00   -6.0011639282017235E+00   -1.7785273078979402E+00
H   -5.9895092842606408E+00   -6.0787615532548180E+00   -3.2115273884013877E+00
O    4.8297826545058165E+00   -2.1460301274331339E+00    6.9148834614081844E-01
H    5.1654009966326031E+00   -1.3040323033120942E+00    1.1898607007938382E+00
H    3.8455341599819142E+00   -2.0002332379073771E+00    8.3128074694201193E-01
O    2.1233117341287913E+00    9.4619723053581417E-01    1.6988741636283002E+00
H    2.8186775415154561E+00    1.5138894727197942E+00    1.3030530792811132E+00
H    2.3787825058190157E+00    7.7819659130712093E-02    1.3043882201252934E+00
O   -5.7551611465470520E+00   -5.0952218493453687E+00   -3.6631930630238285E-01
H   -6.6280136223405099E+00   -5.4636281708206926E+00   -2.4921708320056785E-01
H   -5.9110110075797859E+00   -4.1636564688783002E+00   -6.3274687694898746E-01
O   -4.8451714031716779E+00    4.6295334585666188E+00    2.6237514891609668E+00
H   -5.8338666198480960E+00    4.7080363053695971E+00    2.3479137323581836E+00
H   -4.7458081160502399E+00    3.7721490593574116E+00    2.2497939500698902E+00
O    5.4878855705818745E+00    8.5034780893516049E-01   -5.6028979824573959E+00
H    6.3743017184711892E+00    1.1349259102086757E+00   -5.4292715072625697E+00
H    5.0537462814948348E+00    1.4711340892448159E+00   -6.2287574403135952E+00
O    7.4203322552736717E-01   -1.9094702528728120E+00   -1.2632027025492703E+00
H    4.4137034539481351E-01   -2.7336832765823149E+00   -1.7944160149765263E+00
H   -4.2908696079472251E-02   -1.6733857432078958E+00   -7.3041999635127086E-01
O    3.8980938339558886E+00    2.6153010043282703E+00    9.9147125366512809E-02
H    4.6403480981778999E+00    2.4145249094265977E+00   -4.7663747629381720E-01
H    3.2891603467418249E+00    3.2296918292348709E+00   -4.2733128908356582E-01
O   -1.0877513901562317E+00   -1.3777923395916081E+00    2.9398761220063148E+00
H   -3.4537839568494011E-01   -2.0215520765893462E+00    3.1568884354793081E+00
H   -1.8639888134401161E+00   -1.9985169512900769E+00    3.1409485824666779E+00
O    2.0638896927987944E+00   -5.6291011757085831E+00    1.3589710299735216E+00
H    1.2241783584131636E+00   -6.1510749855615456E+00    1.2679508744038541E+00
H    2.3326177588319665E+00   -5.9010392283195916E+00    2.2929757835968836E+00
O   -6.3569086027817501E-01   -3.8243248754036343E+00   -2.8366279595407020E+00
H   -1.5662129729812380E+00   -3.7833270203506562E+00   -2.5291166488599699E+00
H   -4.9298200742203852E-01   -4.5871868985511384E+00   -3.4240910833449356E+00
O   -5.2851512109669345E+00    2.0768708245480139E+00    1.4481115858432161E+00
H   -4.4422170889683610E+00    1.9152768632761055E+00    1.8936235989150680E+00
H   -5.1150416755793886E+00    1.9171778267921757E+00    4.0737244013754198E-01
O    1.9669863117946236E+00   -3.4196229492762322E+00   -5.2669059658918691E+00
H    1.3750718858907995E+00   -4.1805080769640144E+00   -5.0353539264655325E+00
H    1.2819814803749821E+00   -2.7503526181906661E+00   -5.5587757658794850E+00
O   -1.1889920589633558E+00    3.9307389053071491E+00   -3.3708834015967670E+00
H   -1.1787154565301978E+00    3.9419830076554137E+00   -4.3411649698330308E+00
H   -7.1845294145304661E-01    4.6814274379307932E+00   -2.9586563662148953E+00
O   -5.4351472245047594E+00   -5.0029878701923396E+00    4.2721509154917472E+00
H   -6.1341561959028761E+00   -4.5172180492452494E+00    3.7438348610105887E+00
H   -4.8014611150820423E+00   -5.3898970282243610E+00    3.6908832263974167E+00
O    2.9745722732030107E+00    5.8010080878297083E+00    3.5990243212730393E+00
H    3.3436117805169889E+00    6.5046387713713330E+00    4.1958504008001274E+00
H    2.4290421504519957E+00    5.1852393010600579E+00    4.1434139300301887E+00
O   -4.0472619461952997E+00    1.5479345625669205E+00   -5.0681202895162496E+00
H   -3.5802922676943951E+00    7.9842284342184189E-01   -4.5877340538627882E+00
H   -4.0205428252834920E+00    2.3137535160455656E+00   -4.4776027916633048E+00
O    3.4766154248639318E+00    5.9361944393506283E-01    4.0095344644104003E+00
H    2.8661401107298747E+00    5.7444569001116408E-01    3.2024647194268949E+00
H    4.3028271425506057E+00    4.3761810507559201E-01    3.5393745881632714E+00
O   -4.6151927577920695E+00   -1.0200372537614291E+00    3.9979255354638501E+00
H   -5.3499961071482973E+00   -1.2503060327899453E+00    4.6822322626441739E+00
H   -4.1870833766621498E+00   -1.9226608080819676E+00    3.7843979120418112E+00
O   -2.1567122495703145E-01    1.2745000876647274E+00    3.1331105884015806E+00
H    6.7635956277770681E-01    1.3931430519330286E+00    2.7218210449620774E+00
H   -4.1944694327972676E-01    2.8540357909495695E-01    3.0672267493637468E+00
O   -1.9871618532263722E+00    5.0471641083507146E+00    5.9072481891127815E-01
H   -2.2950991526758893E+00    4.1788806370792404E+00    9.8617600529456917E-01
H   -2.6184585947802370E+00    5.7603568381611749E+00    7.7989576221775148E-01
O   -1.2975881417307353E+00   -1.8959862203527649E+00   -4.9488676293755214E+00
H   -8.4447962645445396E-01   -2.4260000461612559E+00   -4.2026563070401659E+00
H   -5.1753501843375360E-01   -1.3190541366490078E+00   -5.4058824529296983E+00
O   -5.1474696587115085E+00    1.8163602675673474E+00   -1.2949290984394661E+00
H   -4.6896927580947017E+00    2.4822427272933121E+00   -1.8862938400147164E+00
H   -5.3630314051647003E+00    1.1054334265096279E+00   -1.9187615885832867E+00
O   -7.3725434742878351E+00   -1.2310127856406736E+00   -1.9463011288178227E+00
H   -6.4119126325068487E+00   -1.1004746924920281E+00   -2.1520263421257178E+00
H   -7.4688554267793617E+00   -1.5237200531108170E+00   -9.9634737929803119E-01
O   -4.6255626947361522E-01    1.4130274566735359E+00   -1.7108565841574006E+00
H   -7.8643554080037936E-01    2.1962037671321770E+00   -2.1750997913423271E+00
H    2.6310886007775020E-01    9.6355335386835139E-01   -2.2298453468219610E+00
O   -3.7631700678172106E-02   -6.5074356495994170E+00   -1.0950836222099001E+00
H    9.8611690372123542E-03   -5.5508987336300066E+00   -1.1092574073611747E+00
H   -8.2215615804538744E-01   -6.7760983077920374E+00   -4.1315389335005909E-01
O    5.7092953168077063E+00   -1.6930826194698514E+00    6.0203052268440969E+00
H    6.0008777991717643E+00   -2.4972487317509229E+00    6.4746994926580568E+00
H    5.7439407743611675E+00   -9.4493709210745191E-01    6.6246631099001059E+00
O   -2.6041076458987691E+00   -5.7826158332352744E+00   -4.2098624993981941E+00
H   -2.6171910552276638E+00   -6.6894846050515238E+00   -4.5501195654889770E+00
H   -3.5116730731288555E+00   -5.4989318627693748E+00   -3.8835192493213695E+00
O   -4.9429946891799501E+00   -1.4023936323824717E+00   -3.2393776540057355E+00
H   -4.9684997748230124E+00   -2.2666220860031236E+00   -3.7719727180941724E+00
H   -4.0141724213104260E+00   -1.0704405747990842E+00   -3.2380430366836546E+00
O    2.2895911045899342E+00   -8.0798070753155606E+00   -1.2247156520413442E+00
H    1.2856438639152115E+00   -8.1069476688888127E+00   -1.1243076406328443E+00
H    2.5362593229358867E+00   -7.1181913378789039E+00   -1.1713415255753989E+00
O    6.7772676934842657E+00   -3.8953014887071382E+00   -5.3356045359030659E+00
H    7.6152664451632317E+00   -4.1737054778426597E+00   -5.8350922533497220E+00
H    6.0291766242350535E+00   -4.4270201087656096E+00   -5.6850555948126678E+00
O   -3.4356171039261352E-01    4.9716797630947402E+00    2.9576523493804987E+00
H   -6.6110926145608440E-01    4.2334406802270443E+00    3.4704273464959616E+00
H   -7.2136220206299473E-01    4.8440026843339634E+00    2.0571830811296037E+00
O   -2.8150516805287289E+00   -3.9995836216161278E+00    6.2244319342278276E+00
H   -2.4306786593802046E+00   -4.5870032088842585E+00    6.9104099631806362E+00
H   -2.4092687081264943E+00   -3.1557886888084514E+00    6.3980625027960869E+00
O   -2.7965980948775928E+00   -3.4832106743804720E+00    3.4713732603642087E+00
H   -3.0913923244758932E+00   -3.8818847039106519E+00    4.2789501870483280E+00
H   -3.2323225283815615E+00   -4.0479081706502509E+00    2.8242419017607041E+00
O    2.4871837245327977E+00    4.6840691935262653E+00   -3.9634428257599366E+00
H    3.3977920886867832E+00    4.5378401690626751E+00   -3.6105312751833645E+00
H    1.9752092419755845E+00    4.5646399046261052E+00   -3.0919996844416717E+00
O    1.6536854515617117E+00    5.4820618014467415E-02   -3.1023547997480492E+00
H    1.6049118720593687E+00   -5.9146989847131271E-01   -2.3646874318393589E+00
H    2.4635680801736357E+00    5.6108543631787233E-01   -3.0510933207563982E+00
O   -1.2128596315819560E+00   -8.1736108386126407E+00   -6.3553779594308288E+00
H   -8.9701002960674825E-01   -9.0549708078445743E+00   -6.5665804200111992E+00
H   -2.1546148637623448E+00   -8.0407590797834416E+00   -6.5301191355941937E+00
O   -4.6762851948539796E-01    8.3701641440729073E+00    6.0210616779600934E-01
H    3.3708755245952154E-01    8.2868070139897867E+00    1.1589118664265123E+00
H   -1.2126860260781880E+00    8.0371558675147146E+00    1.1271839674367257E+00
O    5.8900381761714753E+00   -6.7862394276443325E+00   -6.6126980627013525E+00
H    5.4363292295434995E+00   -7.5720762871660492E+00   -6.9478539003220741E+00
H    6.1310034891222784E+00   -6.1526391986164946E+00   -7.3565409001072615E+00
O   -3.5556832836198538E-01   -5.2572702952809367E+00    4.6698016653860348E+00
H   -3.7629095652461808E-01   -6.0985178307570438E+00    4.0714635577627130E+00
H   -1.2809813191995330E+00   -5.1437750820949732E+00    4.9671452953012354E+00
O   -3.8179546017830912E+00   -5.5296910459424620E+00    1.7936571244063433E+00
H   -4.0725918834717607E+00   -6.4204998325706093E+00    2.1294647572842940E+00
H   -4.3943224119084983E+00   -5.2907483180562043E+00    1.0079043582546869E+00
     &END COORD
     &VELOCITY
          -2.0012457712228958E-04   -7.9571378317534229E-05    2.9984680829189446E-05
          -1.2494326912729130E-03    1.1976358492799123E-03    1.2820396974112620E-03
          -4.4581629913612990E-04    4.0460429825204739E-04    6.8472233715137910E-04
           1.0549626124892910E-04    7.3251624078131858E-05    2.4124410733530850E-05
          -8.3822967140433188E-04   -1.2966589415713079E-03    3.2445663631068186E-04
          -1.9014667384382748E-04   -1.4497319833485073E-03    2.8895298387358737E-05
          -4.2753793584991408E-04    6.2048125745556287E-05    4.5688621902490755E-05
          -9.3824598421589323E-04   -2.3104760137783082E-04    2.9482832750077954E-05
          -1.0942714383933502E-06    4.4090542283349110E-04   -7.4329891284549189E-04
          -1.0360820733736772E-04   -5.0481769401761287E-04    6.7921451400115287E-05
           4.2370666798244495E-04    4.1257605661509320E-04    8.7174139320896841E-04
          -6.7007680068973524E-04   -7.8640944270257974E-04   -7.7067966683924075E-04
           1.8778953026350754E-05   -8.2502210955843726E-05   -1.0697408282086610E-05
          -7.2986779279573188E-04   -8.5038040261885468E-04   -1.0345005587405786E-03
           2.0557612458839707E-04    8.6712430126001567E-04   -4.0570711130976093E-05
           2.0269724882310391E-04   -1.2591047106642509E-04   -1.1454838595222722E-04
          -3.2505219900499634E-04    9.2265653150629806E-04   -7.5986178499193194E-04
          -2.3979482916014239E-04    5.8319215315635084E-04    6.3751357015555822E-04
           1.4167735835405570E-04    8.5198169301574624E-05   -1.5080597830357173E-04
          -5.0020291846048707E-04   -2.0188259888434307E-04   -3.8674864928635717E-04
          -4.2863288677165928E-04    1.4758026323208710E-03   -2.7018917688963667E-04
          -3.5182620899953728E-05   -5.2582012811288501E-05   -7.9424172303940054E-05
          -4.3295584940239689E-04   -7.7297278965715740E-04    9.5087227751621418E-04
           1.3198930820414736E-03    1.7779016945763196E-03   -8.5954129901123517E-04
          -1.8825441256350170E-04   -2.0092650417221996E-04   -7.4859477712474500E-05
          -8.4524694295471596E-04    9.8994922664035067E-05    9.4961113327509522E-04
          -8.7648124133584630E-04    1.4698840724140889E-03    5.6799906675315576E-04
           1.9318639542677897E-04    7.3837554489716178E-05   -3.2883599375908932E-04
          -2.0727729023293029E-04   -6.5245698911295161E-05   -2.2077806430672794E-04
          -2.6692541353036284E-04    3.7201678378600254E-04   -5.1265235452554949E-04
          -1.6997503659289576E-04   -1.2601929953794612E-04   -7.0846008298746624E-05
           1.3284692510428802E-03   -1.1566855222467749E-03    1.2963541455543500E-03
           1.8358417317813466E-04    5.5717266203172532E-04    1.8297220106322416E-03
           2.8854906012309702E-04    1.5942968516325398E-04    2.3883452975981213E-05
           1.4641944034359433E-03   -2.3219002347060262E-04    3.9384548615945588E-04
           1.8791161586214698E-04   -1.2764448551124440E-03    9.4096533122504889E-04
          -2.2278965238517340E-04   -2.3363024497725229E-05    6.9919417658391602E-05
          -1.8711046744427566E-04   -1.4133671376253174E-03   -6.8892105078370049E-04
          -6.1361323356586039E-04   -8.3018614212923125E-04   -2.7898898822752616E-04
          -1.2103101465668843E-04    5.0136547238549732E-05   -2.5304864453785665E-04
           8.0833887502953746E-04   -1.4567722240246280E-04   -7.8573167136528988E-04
           3.9169095423223770E-04    1.8949800229262806E-03   -6.4986933576272239E-04
          -2.5356535920396337E-04   -3.8567965555307574E-04    1.1959049949479482E-04
          -1.6054445758807012E-04    8.4415838961640838E-04   -3.5436954308768278E-04
           9.5749286765080971E-04   -3.8734843031404918E-04   -5.2143405988559158E-04
           1.5836997963384089E-05    2.9523539023233185E-05   -2.2762706719191880E-04
           3.3713582175907590E-04   -1.0214867359718421E-03    3.0843748080060436E-04
           6.6848039721478022E-04   -5.5696762203248152E-04   -9.7655063770839506E-04
           2.7581393130459412E-04   -2.3954433423360808E-05    9.9829319619098904E-06
           2.1507978189304192E-04    6.0158302101481428E-04   -2.0309802615268237E-04
          -6.2815201554759889E-04    6.6585856446674648E-05    2.9269218672852017E-04
           1.5161557403428643E-05   -1.4235920621580585E-04   -7.3358069965948818E-05
           2.9174676130428903E-05   -1.2451239915035002E-04   -1.0954389365184767E-03
          -6.4081887137190652E-04    6.7521798796770760E-05    2.4767619726069026E-04
           1.9368049307248017E-04    1.5527226759326704E-04   -2.0611599133588452E-04
           5.6212934508134650E-04   -1.8580641156763181E-05    2.9051806435347722E-04
          -4.5662686315375134E-04   -2.8489762092975699E-04    3.8613082686093415E-04
           3.7219316506013699E-04   -1.4784597716514854E-05   -4.8709689120361656E-04
           8.7855513279404935E-04   -5.7150845509384290E-04    2.8094706820469469E-04
          -1.0255424660599063E-03    3.3142812866957075E-04   -9.2119866948731774E-05
           3.5140057237547268E-05    1.1592927265026541E-04    3.4254716574456934E-04
          -6.0730937616198816E-05    1.3101058555604424E-03    1.3054244301525832E-03
          -7.1455406610007241E-04    1.2949623539262162E-03   -4.5191230726179971E-05
          -1.2443961589074426E-05    3.9489497656724094E-04    2.3540490481196603E-04
           1.5807396014138009E-04    1.5255011939624581E-04   -5.6022801045829999E-04
          -4.8180591973893258E-06    1.4884287331315513E-03   -4.8909186297730061E-04
           8.1484251229752775E-05    3.7523203179364798E-05    1.4211934071802298E-04
          -4.6294118380019601E-05    1.3499501394693269E-03   -1.4359121912931876E-03
           3.6949290660610959E-04    3.7037136337157126E-04    1.1894572821673924E-03
           1.1723794725919390E-04    2.5595055888512535E-05   -2.5822562056341728E-04
          -5.1149166338665733E-04    1.7717807972384755E-03    1.3155325530759960E-04
          -5.5915549479419006E-05    2.7700843169553791E-04   -1.2984843823733404E-03
           4.4386936314215849E-05    8.7063179974012896E-05   -8.4051975114735660E-05
           1.5854446273316162E-04    1.4196030955348552E-03    4.1423559077747018E-04
          -8.2568262858574357E-04    1.3066522897446706E-05    7.3550083364905434E-04
           2.8249492069625182E-04    9.2696998733361307E-05    4.1579831375994574E-05
           1.1918530574611238E-03    5.2545375675061459E-04    6.4107147578784944E-04
           7.7831368080202097E-04   -4.0489896401149709E-04    2.1577512948163765E-04
           1.0325188633542817E-04   -8.3728802066566283E-07   -9.3386763041367507E-05
           2.6655655317271227E-04   -5.8591436858438425E-04    1.4192059672402747E-04
           5.0056872195186066E-04    1.9022373351223554E-04    1.1291542687150696E-03
           5.7710316645718816E-05   -8.1844361357672705E-05   -1.5849162918009867E-04
          -4.0579703917300065E-05   -1.7009555938836334E-04    1.1201631343424403E-04
           7.0935852562686408E-04    1.6057848093655035E-03   -8.1897947344914285E-05
          -5.2160952406948228E-04   -7.1201826659332782E-05   -1.8851119885661416E-04
           5.4257466146684613E-04   -6.1295098109031296E-04   -1.4755575385145962E-03
           6.8558528649039798E-04    3.7940100454479702E-04    1.0546636553471480E-03
           1.2899360670398020E-04    1.1106803603315752E-04    1.1994798277259282E-04
           2.4970357440384317E-04   -7.1161487561549348E-04    1.2905617084066256E-03
          -7.8944834913923228E-04   -3.6580046230833539E-04    3.4135177229655743E-04
          -6.8838767688068504E-05   -1.0369498284239083E-04    3.1476816140590388E-04
          -8.2012046147914144E-05   -1.5696848866637742E-04    5.1175461423477325E-05
          -1.3006397561678422E-03   -4.2439327326794567E-04    6.6945482093519601E-04
           2.2999165746311363E-04   -2.1781942443234385E-04   -1.6224474513355138E-04
          -4.4588258655351072E-04    8.2724303898397444E-04    8.2051859978127327E-04
          -3.7518428227450708E-05    2.7845248719830584E-04   -1.2953431873689602E-03
          -1.9169399717212002E-04    3.7486959523503938E-04   -6.9992392669511642E-05
           9.7214328390424405E-04    1.7102071336997717E-05    1.3908836263630528E-04
          -2.2137475272172606E-03   -3.1843396269026601E-04    5.8546214141664491E-04
          -1.1041600877193731E-04    9.8884907036541535E-05    1.7847012480329079E-04
          -4.3223671289073436E-04   -2.0326555856278047E-04    1.2693811996607493E-03
           2.9218609475499042E-04   -5.3018668419819862E-04   -7.8162333054601586E-04
           1.0844601108286706E-04    2.6088180359128328E-04    1.5167688449258383E-04
           6.1067149763609533E-04    4.9994756570385847E-04   -1.4540386520715815E-04
           2.3519481803064408E-04    1.3666702452914400E-04    9.3240281757349418E-04
           9.7745865469097180E-05    8.7412045360174597E-05    5.7124791663718059E-06
           1.3065039188834156E-03    4.5807819179610087E-04    3.4682790492993279E-05
           6.7525659825009681E-05    4.5479579582023108E-04   -1.0414496140493583E-03
           5.1513662528134899E-05   -1.6073161167152870E-04    8.1740915681824568E-05
           7.2568715983852786E-04   -4.0565812723292535E-04   -2.1635588630725250E-04
           5.6294653498472572E-04    1.0902849211262349E-03   -3.7027803577771877E-04
          -2.3526215601781146E-04    1.4131862067798467E-05   -5.5707413712671204E-05
          -9.1006796100748884E-05    1.7694856741334703E-04   -1.0010344156865731E-03
          -7.5597653501294085E-04   -9.8656260004059020E-04   -7.6812896816494814E-04
           1.9411335055694718E-05    1.1176161679605969E-04   -9.1148713094076113E-05
          -1.4034400800140439E-03    7.0841834657070848E-04    7.7150966300378260E-04
          -2.0896131649722602E-04   -1.1956019593565839E-04   -1.5221265634631396E-03
           6.5935860704056771E-05    3.2424613754604878E-05   -1.0698695693429062E-04
          -1.0019835743244588E-03    6.8916365166928246E-04    4.5694085011370168E-04
           3.2716449205558824E-04   -8.1613456751969925E-04   -7.7660856882864958E-04
          -1.8100090108766201E-04   -1.2376049261247427E-04   -3.3336986998891506E-05
           1.6497958373149616E-03    9.4818056825231930E-04   -7.8873221695102572E-04
           9.4340390226883218E-05    3.5969721455103939E-04    1.7734882537414507E-03
           8.4534627298272463E-05   -1.9001750154790592E-04   -1.1469232292283716E-04
           4.0088034049011993E-04   -5.8248282805798299E-05    8.4863638883556211E-04
           2.0347535913697748E-04   -1.0840058043204194E-04   -9.9458107137591280E-04
          -3.8990732590842808E-06   -2.4364648749475967E-05    3.0696113151600844E-04
           9.9833561275886030E-04   -4.9592275350638195E-04   -4.6238838784202677E-04