 # Version information for this restart file 
 # current date 2025-02-11 11:33:34.260
 # current working dir /mnt/lustre-grete/usr/u12591/cp2k_parser_tests/cp2k-2025.1/md_nvt_low
 # Program compiled at                              Tue Jan  7 11:11:50 CET 2025
 # Program compiled on                                                  glogin11
 # Program compiled for                                                    local
 # Source code revision number                                       git:9635df4
 &GLOBAL
   PRINT_LEVEL LOW
   PROJECT_NAME "aiida"
   RUN_TYPE MD
 &END GLOBAL
 &MOTION
   &MD
     ENSEMBLE NVT
     STEPS 5
     TIMESTEP  4.9999999999999994E-001
     STEP_START_VAL 5
     TIME_START_VAL  2.4999999999999996E+000
     ECONS_START_VAL -1.1028095256884490E+003
     TEMPERATURE  3.0000000000000000E+002
     &THERMOSTAT
       TYPE NOSE
       REGION MASSIVE
     &END THERMOSTAT
     &AVERAGES T
       &RESTART_AVERAGES
         ITIMES_START 1
         AVECPU  1.0032316133988388E+001
         AVEHUGONIOT  0.0000000000000000E+000
         AVETEMP_BARO  0.0000000000000000E+000
         AVEPOT -1.1033662327813836E+003
         AVEKIN  2.8308815545237115E-001
         AVETEMP  3.1038910629675809E+002
         AVEKIN_QM  0.0000000000000000E+000
         AVETEMP_QM  0.0000000000000000E+000
         AVEVOL  1.2928894580884409E+004
         AVECELL_A  2.3470398570439684E+001
         AVECELL_B  2.3470398570439684E+001
         AVECELL_C  2.3470398570439684E+001
         AVEALPHA  9.0000000000000000E+001
         AVEBETA  9.0000000000000000E+001
         AVEGAMMA  9.0000000000000000E+001
         AVE_ECONS -9.0405422689979295E-002
         AVE_PRESS  0.0000000000000000E+000
         AVE_PXX  0.0000000000000000E+000
       &END RESTART_AVERAGES
     &END AVERAGES
   &END MD
 &END MOTION
 &FORCE_EVAL
   METHOD QS
   &DFT
     BASIS_SET_FILE_NAME BASIS_MOLOPT
     POTENTIAL_FILE_NAME GTH_POTENTIALS
     MULTIPLICITY 1
     CHARGE 0
     &SCF
       MAX_SCF 30
       EPS_SCF  1.0000000000000001E-005
       SCF_GUESS ATOMIC
       IGNORE_CONVERGENCE_FAILURE T
       &OT T
         MINIMIZER DIIS
         PRECONDITIONER FULL_SINGLE_INVERSE
       &END OT
       &OUTER_SCF T
         EPS_SCF  9.9999999999999995E-007
         MAX_SCF 5
       &END OUTER_SCF
       &PRINT
         &RESTART OFF
         &END RESTART
       &END PRINT
     &END SCF
     &QS
       EPS_DEFAULT  1.0000000000000000E-008
       EXTRAPOLATION ASPC
       METHOD GPW
     &END QS
     &MGRID
       CUTOFF  4.0000000000000000E+002
     &END MGRID
     &XC
       DENSITY_CUTOFF  1.0000000000000000E-010
       GRADIENT_CUTOFF  1.0000000000000000E-010
       TAU_CUTOFF  1.0000000000000000E-010
       &XC_FUNCTIONAL NO_SHORTCUT
         &PBE T
         &END PBE
       &END XC_FUNCTIONAL
       &VDW_POTENTIAL
         POTENTIAL_TYPE PAIR_POTENTIAL
         &PAIR_POTENTIAL
           R_CUTOFF  1.6000000000000000E+001
           TYPE DFTD3
           PARAMETER_FILE_NAME dftd3.dat
           REFERENCE_FUNCTIONAL "PBE"
         &END PAIR_POTENTIAL
       &END VDW_POTENTIAL
     &END XC
     &POISSON
       PERIODIC XYZ
     &END POISSON
   &END DFT
   &SUBSYS
     &CELL
       A  1.2420000000000000E+001  0.0000000000000000E+000  0.0000000000000000E+000
       B  0.0000000000000000E+000  1.2420000000000000E+001  0.0000000000000000E+000
       C  0.0000000000000000E+000  0.0000000000000000E+000  1.2420000000000000E+001
       MULTIPLE_UNIT_CELL 1 1 1
     &END CELL
     &COORD
       O  3.8476523448822517E+000 -4.7572858051089115E+000  5.5115245845581402E+000
       H  4.1497688746925281E+000 -5.5056491469706508E+000  6.0683847939107052E+000
       H  3.0574142857623308E+000 -4.2852793710403745E+000  5.9390440535880185E+000
       O -3.5402253350878699E+000  1.7506229286457320E+000  4.2923541522709936E+000
       H -3.3923308490221515E+000  7.6122192099198438E-001  4.1612148595991298E+000
       H -3.6132926512652421E+000  1.8605078693702342E+000  5.2190171694885903E+000
       O  4.5456227369386841E+000  2.9364709654326204E+000 -7.1008090148705882E+000
       H  3.6179751341929727E+000  3.2240598202041988E+000 -6.7885720683465234E+000
       H  4.5034151435396588E+000  2.8172408111895102E+000 -8.0457501676454708E+000
       O -2.5785360701508138E+000 -1.3225011916855423E-001 -3.4094899452899465E+000
       H -2.0377144061500077E+000  4.1032371007002932E-001 -2.8178529425187229E+000
       H -1.9113812224982538E+000 -6.4750225955927276E-001 -3.9657431794519860E+000
       O -3.7612751781292424E+000 -7.7162625969305259E+000  5.6315818858462237E+000
       H -4.6675601830004876E+000 -7.4669052289066045E+000  5.9330779569307914E+000
       H -3.8356875330262272E+000 -7.5737707141842163E+000  4.5981656357227854E+000
       O -6.7019957338320619E+000 -8.2861220542791242E-002  2.3103323678144481E+000
       H -6.0574628094857514E+000 -4.0113626324918505E-001  2.9842795719933832E+000
       H -6.2720675019833410E+000  7.6721682216992015E-001  1.9953644488363769E+000
       O  4.0181391743623935E+000 -5.5759277303582993E+000 -4.2079929938161514E-001
       H  3.3115878231393414E+000 -5.6289378424638521E+000  2.7504291282971954E-001
       H  3.8885985801371477E+000 -4.6884479194685822E+000 -8.3151281884680051E-001
       O -2.6708576949866898E+000 -3.0839192551391537E+000 -1.2293555949051429E+000
       H -3.2784731008538270E+000 -2.4928517043862186E+000 -1.7005494000133052E+000
       H -2.1136787674058399E+000 -2.5088166924741779E+000 -6.1932268445816763E-001
       O  5.4469281151043809E+000 -3.1793901877478223E+000  3.0960552197056099E+000
       H  4.6376570934707555E+000 -3.2479162714733714E+000  3.6944993138858364E+000
       H  5.2230696006052817E+000 -2.9639622868197022E+000  2.1363158950823706E+000
       O  2.0184499199097856E+000  3.8060650715010360E+000 -6.6620655262833433E+000
       H  1.3770270883288878E+000  3.0724805897653575E+000 -6.8197760196274713E+000
       H  1.8113229813285023E+000  4.0875976327635399E+000 -5.7405793843469057E+000
       O  4.0538238544651088E+000 -3.8994257686758860E+000 -3.0621926940603719E+000
       H  3.2831921475049044E+000 -3.7755340297918409E+000 -3.6390884458817063E+000
       H  4.3321435242071473E+000 -2.9743342066010685E+000 -2.8927125129415683E+000
       O  1.9911703732713872E+000 -1.8367531062081910E+000  1.0233832764483837E+000
       H  1.6415785663600424E+000 -2.4879456054546965E+000  1.6750237693345968E+000
       H  1.6430063990177712E+000 -1.9673461191416317E+000  1.1436041737752771E-001
       O  7.2383887173286177E-001 -5.7477507718470182E+000 -5.0089689076692379E+000
       H  1.4318282154575590E+000 -6.3710100862060859E+000 -4.8600287930411730E+000
       H  4.2543137341743886E-001 -5.7398823571444488E+000 -5.9181545027726674E+000
       O -7.5227084346126674E+000 -8.6742981036161648E+000 -3.2517552226872453E+000
       H -7.8286284817126992E+000 -9.6036261441472632E+000 -3.1089855912446218E+000
       H -7.1226807184991836E+000 -8.4938123682007411E+000 -2.3915267524769916E+000
       O  2.9967200156398102E+000 -1.6392410904818031E+000  5.1746010777081706E+000
       H  3.8342030213339582E+000 -1.7514749931191653E+000  5.6695194538212732E+000
       H  3.2093997003879009E+000 -8.8513093132673615E-001  4.6032000632614238E+000
       O -9.3981066712867614E-002  1.8627605856171936E+000 -6.7010856623941821E+000
       H  2.4851356659347884E-001  1.0300354675650656E+000 -6.3180135355607714E+000
       H -7.9108509881970299E-003  1.7256021883982362E+000 -7.6424884316457744E+000
       O  1.3949219369781534E+000 -3.0865100270657693E+000  3.6637438784173488E+000
       H  2.0118709925604210E+000 -2.6436372138900914E+000  4.2977354608817340E+000
       H  1.0859631654521593E+000 -3.9138054744960504E+000  3.9689922565514957E+000
       O -2.3282066405370814E+000  2.7977935218828058E+000  2.2332326540694702E+000
       H -1.6086213625218997E+000  2.1098694686011310E+000  2.1098585647307226E+000
       H -2.7965698484370929E+000  2.5965913804994591E+000  3.0832178048231476E+000
       O  8.8204856087022898E-001 -6.5407493953065876E-001 -5.6103944774467021E+000
       H  1.7808054571335965E+000 -8.1324037321239095E-001 -6.0954143083858794E+000
       H  1.1758966987338559E+000 -2.4051657635492077E-001 -4.7397617569238566E+000
       O -1.1659508185294063E+000 -7.1870873919966261E-001  2.2045955911237372E-001
       H -1.0883294195704398E+000  2.3040193611933088E-001 -6.1035711717627568E-002
       H -9.9175182770568648E-001 -7.6019376847375431E-001  1.1521247063480022E+000
       O -3.8848294046978906E+000 -9.0050432614929381E+000 -3.1129051416316069E+000
       H -4.4951589798576164E+000 -8.2402528897845233E+000 -3.1462578687580613E+000
       H -2.9514136349445597E+000 -8.6631350128303435E+000 -3.1310574145850985E+000
       O  4.9788070674707683E+000  4.5789816263528342E+000  2.1732999987413884E+000
       H  4.5821871683393915E+000  4.0917957452324307E+000  1.4196794093321887E+000
       H  4.1990040774347985E+000  4.9855029392343440E+000  2.6443519349537246E+000
       O  4.2125979079803910E+000  1.0320643192943919E+000 -3.2075179559180556E+000
       H  4.6109829832961893E+000  9.2892321038824310E-001 -4.1218526725838442E+000
       H  4.4390493111590290E+000  1.9775576004088485E-001 -2.6646120144327523E+000
       O -5.2049429059587435E+000 -6.3435776379117943E+000 -2.6938083039396452E+000
       H -5.4127114217307435E+000 -6.0011639284743916E+000 -1.7785273081094823E+000
       H -5.9895092839017696E+000 -6.0787615535326278E+000 -3.2115273888368940E+000
       O  4.8297826544868379E+000 -2.1460301274510756E+000  6.9148834614973242E-001
       H  5.1654009965972465E+000 -1.3040323031871472E+000  1.1898607009237707E+000
       H  3.8455341596688664E+000 -2.0002332377147045E+000  8.3128074698524257E-001
       O  2.1233117341309820E+000  9.4619723048951199E-001  1.6988741636411544E+000
       H  2.8186775415375398E+000  1.5138894726504708E+000  1.3030530795877175E+000
       H  2.3787825060104129E+000  7.7819658915620218E-002  1.3043882200799328E+000
       O -5.7551611465406056E+000 -5.0952218493282189E+000 -3.6631930627310344E-001
       H -6.6280136224628432E+000 -5.4636281707069179E+000 -2.4921708277005791E-001
       H -5.9110110071052882E+000 -4.1636564687650228E+000 -6.3274687651916195E-001
       O -4.8451714031844313E+000  4.6295334585532428E+000  2.6237514891682361E+000
       H -5.8338666198986813E+000  4.7080363054772327E+000  2.3479137326196318E+000
       H -4.7458081155777387E+000  3.7721490595327851E+000  2.2497939499044830E+000
       O  5.4878855706034306E+000  8.5034780892699202E-001 -5.6028979824760121E+000
       H  6.3743017186654471E+000  1.1349259100179523E+000 -5.4292715068541204E+000
       H  5.0537462818156733E+000  1.4711340892620821E+000 -6.2287574401101340E+000
       O  7.4203322557317275E-001 -1.9094702528806784E+000 -1.2632027025831440E+000
       H  4.4137034534627023E-001 -2.7336832765995198E+000 -1.7944160153189583E+000
       H -4.2908696102636576E-002 -1.6733857431784946E+000 -7.3041999628702214E-001
       O  3.8980938339596278E+000  2.6153010042929759E+000  9.9147125385132706E-002
       H  4.6403480981383369E+000  2.4145249096404329E+000 -4.7663747565561831E-001
       H  3.2891603468300339E+000  3.2296918293228294E+000 -4.2733128930075331E-001
       O -1.0877513900929634E+000 -1.3777923396431657E+000  2.9398761220103382E+000
       H -3.4537839554990651E-001 -2.0215520770806226E+000  3.1568884357949809E+000
       H -1.8639888131889923E+000 -1.9985169514743129E+000  3.1409485823025567E+000
       O  2.0638896927608039E+000 -5.6291011757198861E+000  1.3589710299531939E+000
       H  1.2241783583073476E+000 -6.1510749854852875E+000  1.2679508745529302E+000
       H  2.3326177586867520E+000 -5.9010392281762627E+000  2.2929757837814719E+000
       O -6.3569086026855126E-001 -3.8243248753558379E+000 -2.8366279595754320E+000
       H -1.5662129730017265E+000 -3.7833270203010154E+000 -2.5291166490104473E+000
       H -4.9298200747574417E-001 -4.5871868983912556E+000 -3.4240910832819753E+000
       O -5.2851512109360446E+000  2.0768708245469658E+000  1.4481115858795082E+000
       H -4.4422170890283246E+000  1.9152768630077279E+000  1.8936235991270642E+000
       H -5.1150416755743882E+000  1.9171778273643252E+000  4.0737244054182681E-001
       O  1.9669863117979964E+000 -3.4196229492795691E+000 -5.2669059658685384E+000
       H  1.3750718854750366E+000 -4.1805080762853537E+000 -5.0353539266148886E+000
       H  1.2819814810150536E+000 -2.7503526187392406E+000 -5.5587757662168134E+000
       O -1.1889920589406837E+000  3.9307389052948296E+000 -3.3708834015938822E+000
       H -1.1787154566131222E+000  3.9419830075844180E+000 -4.3411649699103778E+000
       H -7.1845294100046941E-001  4.6814274377332188E+000 -2.9586563657675602E+000
       O -5.4351472245114962E+000 -5.0029878701875390E+000  4.2721509154918635E+000
       H -6.1341561953484351E+000 -4.5172180489946534E+000  3.7438348609903747E+000
       H -4.8014611151046651E+000 -5.3898970281931646E+000  3.6908832265089471E+000
       O  2.9745722732169120E+000  5.8010080878350152E+000  3.5990243213116004E+000
       H  3.3436117804558143E+000  6.5046387720559906E+000  4.1958504006451474E+000
       H  2.4290421505161488E+000  5.1852393011025830E+000  4.1434139301537209E+000
       O -4.0472619462614254E+000  1.5479345625497694E+000 -5.0681202895217581E+000
       H -3.5802922678770290E+000  7.9842284312640643E-001 -4.5877340542223548E+000
       H -4.0205428252674933E+000  2.3137535160488811E+000 -4.4776027917920391E+000
       O  3.4766154248598320E+000  5.9361944392496813E-001  4.0095344643985511E+000
       H  2.8661401108457834E+000  5.7444569019890723E-001  3.2024647195577183E+000
       H  4.3028271431236051E+000  4.3761810548373664E-001  3.5393745889355452E+000
       O -4.6151927578066951E+000 -1.0200372537889011E+000  3.9979255354256646E+000
       H -5.3499961066820783E+000 -1.2503060329454101E+000  4.6822322627392712E+000
       H -4.1870833765426809E+000 -1.9226608081177643E+000  3.7843979121052906E+000
       O -2.1567122494778740E-001  1.2745000876757027E+000  3.1331105884112325E+000
       H  6.7635956269156583E-001  1.3931430519963517E+000  2.7218210448542774E+000
       H -4.1944694330327548E-001  2.8540357904432884E-001  3.0672267494243481E+000
       O -1.9871618532474877E+000  5.0471641083290155E+000  5.9072481891345274E-001
       H -2.2950991523679427E+000  4.1788806372759257E+000  9.8617600488875590E-001
       H -2.6184585949213135E+000  5.7603568382480006E+000  7.7989576215193013E-001
       O -1.2975881417322932E+000 -1.8959862203375606E+000 -4.9488676293876361E+000
       H -8.4447962656205400E-001 -2.4260000463403841E+000 -4.2026563066738856E+000
       H -5.1753501840536587E-001 -1.3190541370155433E+000 -5.4058824526077069E+000
       O -5.1474696587120032E+000  1.8163602675487667E+000 -1.2949290984500863E+000
       H -4.6896927580242895E+000  2.4822427272717573E+000 -1.8862938401332325E+000
       H -5.3630314052661507E+000  1.1054334268146813E+000 -1.9187615889978025E+000
       O -7.3725434743158713E+000 -1.2310127856902982E+000 -1.9463011288138241E+000
       H -6.4119126326928777E+000 -1.1004746927948630E+000 -2.1520263422800361E+000
       H -7.4688554269646383E+000 -1.5237200530658619E+000 -9.9634737902163706E-001
       O -4.6255626948813838E-001  1.4130274567066581E+000 -1.7108565841595078E+000
       H -7.8643554075972832E-001  2.1962037671731740E+000 -2.1750997912280337E+000
       H  2.6310885993140970E-001  9.6355335429473310E-001 -2.2298453471068025E+000
       O -3.7631700696268582E-002 -6.5074356496149317E+000 -1.0950836221924600E+000
       H  9.8611688159150387E-003 -5.5508987333131028E+000 -1.1092574075826152E+000
       H -8.2215615785799301E-001 -6.7760983077801775E+000 -4.1315389262417623E-001
       O  5.7092953167972684E+000 -1.6930826194394240E+000  6.0203052268635338E+000
       H  6.0008777991563482E+000 -2.4972487318021579E+000  6.4746994927475114E+000
       H  5.7439407742007793E+000 -9.4493709166497186E-001  6.6246631101626665E+000
       O -2.6041076458898429E+000 -5.7826158332220228E+000 -4.2098624994327558E+000
       H -2.6171910545568244E+000 -6.6894846048464549E+000 -4.5501195655527393E+000
       H -3.5116730730814862E+000 -5.4989318632969608E+000 -3.8835192492558757E+000
       O -4.9429946892169800E+000 -1.4023936323923154E+000 -3.2393776540389791E+000
       H -4.9684997743094277E+000 -2.2666220862123341E+000 -3.7719727179399025E+000
       H -4.0141724216105725E+000 -1.0704405746866825E+000 -3.2380430365230986E+000
       O  2.2895911045737676E+000 -8.0798070753227016E+000 -1.2247156520236462E+000
       H  1.2856438639421919E+000 -8.1069476685655140E+000 -1.1243076402643570E+000
       H  2.5362593233390283E+000 -7.1181913380760582E+000 -1.1713415259285958E+000
       O  6.7772676934745393E+000 -3.8953014886874233E+000 -5.3356045359216111E+000
       H  7.6152664452983725E+000 -4.1737054778332920E+000 -5.8350922532835350E+000
       H  6.0291766245590601E+000 -4.4270201088214396E+000 -5.6850555947857817E+000
       O -3.4356171042322825E-001  4.9716797630916529E+000  2.9576523494070392E+000
       H -6.6110926113657598E-001  4.2334406801545983E+000  3.4704273470098945E+000
       H -7.2136220213967439E-001  4.8440026848890989E+000  2.0571830816282670E+000
       O -2.8150516805337857E+000 -3.9995836215925151E+000  6.2244319342442695E+000
       H -2.4306786596919903E+000 -4.5870032092018587E+000  6.9104099627239322E+000
       H -2.4092687080445860E+000 -3.1557886887908264E+000  6.3980625029841862E+000
       O -2.7965980949038878E+000 -3.4832106743963771E+000  3.4713732604110188E+000
       H -3.0913923245802022E+000 -3.8818847039121294E+000  4.2789501871389337E+000
       H -3.2323225283053367E+000 -4.0479081701747042E+000  2.8242419018122829E+000
       O  2.4871837245282098E+000  4.6840691935823671E+000 -3.9634428258093162E+000
       H  3.3977920886567707E+000  4.5378401689258334E+000 -3.6105312752403687E+000
       H  1.9752092419790175E+000  4.5646399045798782E+000 -3.0919996846732420E+000
       O  1.6536854515071002E+000  5.4820617967451808E-002 -3.1023547997580438E+000
       H  1.6049118723023721E+000 -5.9146989869703881E-001 -2.3646874315104558E+000
       H  2.4635680800416822E+000  5.6108543605516847E-001 -3.0510933205196462E+000
       O -1.2128596315931033E+000 -8.1736108386094308E+000 -6.3553779594067734E+000
       H -8.9701002957414411E-001 -9.0549708080328362E+000 -6.5665804205254554E+000
       H -2.1546148638695408E+000 -8.0407590793173362E+000 -6.5301191360853261E+000
       O -4.6762851950220902E-001  8.3701641440780250E+000  6.0210616784535753E-001
       H  3.3708755211090324E-001  8.2868070142724690E+000  1.1589118667694858E+000
       H -1.2126860255721277E+000  8.0371558680659323E+000  1.1271839678995828E+000
       O  5.8900381761467377E+000 -6.7862394276350706E+000 -6.6126980626983078E+000
       H  5.4363292293534240E+000 -7.5720762873177856E+000 -6.9478539004845672E+000
       H  6.1310034885105562E+000 -6.1526391988886280E+000 -7.3565409006623490E+000
       O -3.5556832834660740E-001 -5.2572702952444930E+000  4.6698016653443766E+000
       H -3.7629095615693287E-001 -6.0985178301122103E+000  4.0714635582061112E+000
       H -1.2809813193300781E+000 -5.1437750822143276E+000  4.9671452956661675E+000
       O -3.8179546018003210E+000 -5.5296910459628359E+000  1.7936571244168327E+000
       H -4.0725918835405599E+000 -6.4204998328425571E+000  2.1294647574012573E+000
       H -4.3943224119731994E+000 -5.2907483177227945E+000  1.0079043578690154E+000
     &END COORD
     &VELOCITY
        -2.0012457993033697E-004 -7.9571379248292209E-005  2.9984682060447536E-005
        -1.2494327049667367E-003  1.1976358458096318E-003  1.2820397092790433E-003
        -4.4581629910311400E-004  4.0460431760505356E-004  6.8472234555217327E-004
         1.0549626047468588E-004  7.3251622263910342E-005  2.4124411409429288E-005
        -8.3822967818005466E-004 -1.2966589374455695E-003  3.2445662451677248E-004
        -1.9014665929036468E-004 -1.4497319823750625E-003  2.8895300224038460E-005
        -4.2753793463336319E-004  6.2048125051092514E-005  4.5688620740801703E-005
        -9.3824598342183278E-004 -2.3104760090657598E-004  2.9482834102547834E-005
        -1.0942694556501801E-006  4.4090539671198190E-004 -7.4329891667086648E-004
        -1.0360820686531257E-004 -5.0481769392472190E-004  6.7921452147321241E-005
         4.2370666149964639E-004  4.1257607532565197E-004  8.7174139097218289E-004
        -6.7007679224051519E-004 -7.8640945422260610E-004 -7.7067965596577326E-004
         1.8778954802388943E-005 -8.2502209047379305E-005 -1.0697408704165190E-005
        -7.2986776776194499E-004 -8.5038041007137245E-004 -1.0345005414288987E-003
         2.0557612667690081E-004  8.6712431461336828E-004 -4.0570720706639333E-005
         2.0269724572071575E-004 -1.2591047070109466E-004 -1.1454838524833513E-004
        -3.2505218823207353E-004  9.2265653996349351E-004 -7.5986177954386264E-004
        -2.3979482881680242E-004  5.8319215796765497E-004  6.3751356358336252E-004
         1.4167735802922163E-004  8.5198169373014874E-005 -1.5080597880269786E-004
        -5.0020292047556181E-004 -2.0188259453274309E-004 -3.8674865416439514E-004
        -4.2863288864103589E-004  1.4758026318831921E-003 -2.7018917821199139E-004
        -3.5182620659141794E-005 -5.2582013083905757E-005 -7.9424173556581274E-005
        -4.3295584702593778E-004 -7.7297279126817796E-004  9.5087227557508040E-004
         1.3198930810516098E-003  1.7779016963182547E-003 -8.5954130003907823E-004
        -1.8825441410877139E-004 -2.0092650556643947E-004 -7.4859476943131537E-005
        -8.4524694167850320E-004  9.8994935102973510E-005  9.4961112986182014E-004
        -8.7648124332741185E-004  1.4698840673856657E-003  5.6799906020827719E-004
         1.9318639601125800E-004  7.3837555089019784E-005 -3.2883599361932433E-004
        -2.0727728542425426E-004 -6.5245699119709271E-005 -2.2077807647704465E-004
        -2.6692541358049559E-004  3.7201678617530750E-004 -5.1265235602745084E-004
        -1.6997503612463423E-004 -1.2601929902302504E-004 -7.0846009013478256E-005
         1.3284692488795570E-003 -1.1566855166713003E-003  1.2963541512497376E-003
         1.8358419854937121E-004  5.5717265929905197E-004  1.8297220082351471E-003
         2.8854906111408231E-004  1.5942968504793686E-004  2.3883452200197475E-005
         1.4641943930769454E-003 -2.3219001587178713E-004  3.9384548432457787E-004
         1.8791161527775837E-004 -1.2764448559083703E-003  9.4096533236111626E-004
        -2.2278965338272302E-004 -2.3363024373961548E-005  6.9919416143066193E-005
        -1.8711047694165529E-004 -1.4133671385832757E-003 -6.8892107077580947E-004
        -6.1361324222217618E-004 -8.3018613834505916E-004 -2.7898898759121067E-004
        -1.2103101479747310E-004  5.0136546187119447E-005 -2.5304864492920950E-004
         8.0833887543715758E-004 -1.4567722352560193E-004 -7.8573167263528928E-004
         3.9169095174525583E-004  1.8949800268217138E-003 -6.4986933411242172E-004
        -2.5356535972870269E-004 -3.8567965467968085E-004  1.1959049884291459E-004
        -1.6054445617254325E-004  8.4415838781857556E-004 -3.5436954239043372E-004
         9.5749288910781829E-004 -3.8734843405641064E-004 -5.2143407619249077E-004
         1.5836996602538293E-005  2.9523539033264904E-005 -2.2762706810415759E-004
         3.3713581505882443E-004 -1.0214867338893259E-003  3.0843749025210107E-004
         6.6848037860793336E-004 -5.5696761947008212E-004 -9.7655064892380116E-004
         2.7581393080701786E-004 -2.3954433959982418E-005  9.9829325805388974E-006
         2.1507977969225579E-004  6.0158301472117539E-004 -2.0309802271256455E-004
        -6.2815204020432976E-004  6.6585866811004390E-005  2.9269217073959135E-004
         1.5161558257799645E-005 -1.4235920757796458E-004 -7.3358070059428363E-005
         2.9174672936533356E-005 -1.2451240992611052E-004 -1.0954389335198871E-003
        -6.4081886515084184E-004  6.7521807974634931E-005  2.4767619760021663E-004
         1.9368049313559939E-004  1.5527226697236666E-004 -2.0611599052201534E-004
         5.6212934283988319E-004 -1.8580654868837053E-005  2.9051804909593524E-004
        -4.5662685785723757E-004 -2.8489761852076585E-004  3.8613083352533224E-004
         3.7219316694533607E-004 -1.4784598959097128E-005 -4.8709689149237359E-004
         8.7855513247351409E-004 -5.7150845390798117E-004  2.8094706811499908E-004
        -1.0255424550745552E-003  3.3142813746747614E-004 -9.2119872074330233E-005
         3.5140057115710381E-005  1.1592927374434061E-004  3.4254716568128240E-004
        -6.0730936115183508E-005  1.3101058569366423E-003  1.3054244235999825E-003
        -7.1455405879583143E-004  1.2949623478957679E-003 -4.5191235549552622E-005
        -1.2443961012193525E-005  3.9489497693616994E-004  2.3540490439423296E-004
         1.5807394762827468E-004  1.5255012335736650E-004 -5.6022802352654255E-004
        -4.8180554666093637E-006  1.4884287403256744E-003 -4.8909186256456609E-004
         8.1484250896974591E-005  3.7523202772301221E-005  1.4211933881713444E-004
        -4.6294110476768942E-005  1.3499501357272714E-003 -1.4359121990190273E-003
         3.6949291820787146E-004  3.7037138007752385E-004  1.1894572915770883E-003
         1.1723794796212681E-004  2.5595055165886383E-005 -2.5822562128800347E-004
        -5.1149166093396076E-004  1.7717807889475749E-003  1.3155324957143507E-004
        -5.5915536711444293E-005  2.7700842182624389E-004 -1.2984843994879494E-003
         4.4386935460016949E-005  8.7063179407346580E-005 -8.4051974771511947E-005
         1.5854446114474876E-004  1.4196030997239855E-003  4.1423559552064933E-004
        -8.2568263818712478E-004  1.3066530081251412E-005  7.3550083514489545E-004
         2.8249492084333729E-004  9.2696996907463055E-005  4.1579831786279437E-005
         1.1918530546981452E-003  5.2545375720010497E-004  6.4107148479469647E-004
         7.7831368859100994E-004 -4.0489896999047629E-004  2.1577512906586263E-004
         1.0325188655836268E-004 -8.3728750965858412E-007 -9.3386762014996408E-005
         2.6655654420009968E-004 -5.8591436416741735E-004  1.4192061061462863E-004
         5.0056873545154521E-004  1.9022373829222911E-004  1.1291542832146237E-003
         5.7710316203278440E-005 -8.1844361810491043E-005 -1.5849162887960393E-004
        -4.0579705971614005E-005 -1.7009555604901292E-004  1.1201632253186159E-004
         7.0935853934577507E-004  1.6057848159250314E-003 -8.1897948851156492E-005
        -5.2160952314349112E-004 -7.1201827033817147E-005 -1.8851119950395151E-004
         5.4257466654428145E-004 -6.1295098902344400E-004 -1.4755575251569795E-003
         6.8558529955760393E-004  3.7940100038520431E-004  1.0546636630972643E-003
         1.2899360834673986E-004  1.1106803572935981E-004  1.1994798154028126E-004
         2.4970357300453942E-004 -7.1161487572415916E-004  1.2905616970230237E-003
        -7.8944834918081284E-004 -3.6580046153083639E-004  3.4135177395450041E-004
        -6.8838767717233475E-005 -1.0369498385156928E-004  3.1476816224297919E-004
        -8.2012043195710694E-005 -1.5696848795620252E-004  5.1175474868412622E-005
        -1.3006397525391379E-003 -4.2439327078925708E-004  6.6945481370725803E-004
         2.2999166001514483E-004 -2.1781942655248700E-004 -1.6224474496800528E-004
        -4.4588258539264493E-004  8.2724302586274898E-004  8.2051860945666570E-004
        -3.7518419687305412E-005  2.7845248014758071E-004 -1.2953431936754856E-003
        -1.9169399867668448E-004  3.7486959490514241E-004 -6.9992393308649162E-005
         9.7214327475099135E-004  1.7102072036172640E-005  1.3908836686230003E-004
        -2.2137475335953305E-003 -3.1843395717494875E-004  5.8546214757366122E-004
        -1.1041600836335610E-004  9.8884908849817816E-005  1.7847012320530427E-004
        -4.3223671373043783E-004 -2.0326555657943225E-004  1.2693811945250042E-003
         2.9218609464539455E-004 -5.3018668277123851E-004 -7.8162332200351658E-004
         1.0844601225126055E-004  2.6088180355540193E-004  1.5167688581363325E-004
         6.1067149508978473E-004  4.9994755640908487E-004 -1.4540385798439282E-004
         2.3519481314302065E-004  1.3666704360615993E-004  9.3240282796377592E-004
         9.7745865878981139E-005  8.7412045110352556E-005  5.7124800609255495E-006
         1.3065039030700949E-003  4.5807821445435282E-004  3.4682785681301198E-005
         6.7525672879667676E-005  4.5479577837528455E-004 -1.0414496216995589E-003
         5.1513663443350333E-005 -1.6073161203579447E-004  8.1740915823067081E-005
         7.2568715734573294E-004 -4.0565812974508044E-004 -2.1635588808030274E-004
         5.6294655114975402E-004  1.0902849062553470E-003 -3.7027801832993006E-004
        -2.3526215620497896E-004  1.4131862226023783E-005 -5.5707413627604553E-005
        -9.1006777787419461E-005  1.7694857717580659E-004 -1.0010344173728605E-003
        -7.5597653053020234E-004 -9.8656260073510496E-004 -7.6812895942791166E-004
         1.9411335711610848E-005  1.1176161715089768E-004 -9.1148711576465328E-005
        -1.4034400836795183E-003  7.0841836853531787E-004  7.7150965647092783E-004
        -2.0896131393211478E-004 -1.1956019427158204E-004 -1.5221265590286530E-003
         6.5935858412846879E-005  3.2424613125321591E-005 -1.0698695748933593E-004
        -1.0019835810219696E-003  6.8916364132522580E-004  4.5694083789205633E-004
         3.2716449299001975E-004 -8.1613456726572109E-004 -7.7660857321775985E-004
        -1.8100090118710959E-004 -1.2376049301125521E-004 -3.3336987360681829E-005
         1.6497958418940435E-003  9.4818057508712741E-004 -7.8873221366816736E-004
         9.4340410006715870E-005  3.5969722263093915E-004  1.7734882806944236E-003
         8.4534626819405260E-005 -1.9001750256358784E-004 -1.1469232435808525E-004