# 
# This is the geometry file that corresponds to the current relaxation step.
# If you do not want this file to be written, set the "write_restart_geometry" flag to .false.
#  aims_uuid : D7FCE5A5-847C-401D-A708-190049211E61                                
# 
lattice_vector      0.00115979      4.65005849      4.65005734
lattice_vector      4.65010434      0.00120539      4.65008631
lattice_vector      4.65010545      4.65008857      0.00120668
atom       2.31900826      2.32244234      2.32240588 Cs
atom       6.96935234      6.97275700      6.97272189 Cs
atom       4.64581248      4.64836137      4.64840046 Cs
atom      -0.00794040     -0.00381924     -0.00379697 Sb
# 
# What follows is the current estimated Hessian matrix constructed by the BFGS algorithm.
# This is NOT the true Hessian matrix of the system.
# If you do not want this information here, switch it off using the "hessian_to_restart_geometry" keyword.
# 
trust_radius             0.0275626151
hessian_block                1       1           2.673778           0.315940           0.353667           0.315940           2.191735           0.141031           0.353667           0.141031           2.221514
hessian_block                1       2           0.681468           0.331999           0.354256           0.291613           0.145826           0.113502           0.333379           0.138219           0.207260
hessian_block                1       3          -0.989563          -0.447094          -0.516125          -0.418032          -0.220423          -0.172340          -0.534822          -0.205875          -0.328790
hessian_block                1       4          -0.365683          -0.200845          -0.191799          -0.189521          -0.117138          -0.082193          -0.152225          -0.073375          -0.099984
hessian_block                2       2           2.701331           0.287587           0.346949           0.287587           2.185650           0.099502           0.346949           0.099502           2.211407
hessian_block                2       3          -1.053580          -0.438200          -0.551357          -0.448052          -0.238500          -0.188450          -0.565509          -0.179881          -0.346452
hessian_block                2       4          -0.329220          -0.141000          -0.128971          -0.171534          -0.092977          -0.049272          -0.135695          -0.033124          -0.072214
hessian_block                3       3           3.405483           0.564527           0.784212           0.564527           2.284508           0.251965           0.784212           0.251965           2.507281
hessian_block                3       4           0.637660           0.301558           0.316119           0.320768           0.174415           0.133791           0.283270           0.108824           0.167961
hessian_block                4       4           2.057243           0.040287           0.004650           0.040287           2.035699          -0.002326           0.004650          -0.002326           2.004238
hessian_block_lv             1       1          15.396367          -5.115520          -5.119919          -5.115520          20.501261          -9.652044          -5.119919          -9.652044          20.497194
hessian_block_lv             1       2           2.435206          -2.108810          -2.111191          -7.191583           2.419921           2.415812           2.406678          -2.108975          -2.111368
hessian_block_lv             1       3           2.426395          -2.112043          -2.113934           2.402266          -2.110036          -2.112216          -7.186563           2.421890           2.417508
hessian_block_lv             2       2          20.507960          -5.105240          -9.643231          -5.105240          15.447310          -5.133618          -9.643231          -5.133618          20.507686
hessian_block_lv             2       3          -2.109005           2.424260          -2.109095          -2.106682           2.399989          -2.106920           2.434721          -7.161313           2.406358
hessian_block_lv             3       3          20.501614          -9.647719          -5.111833          -9.647719          20.505357          -5.135813          -5.111833          -5.135813          15.457037
hessian_block_lv_atom        1       1          -0.139185          -0.316724          -0.313955          -0.105194          -0.134726          -0.133505          -0.112684          -0.161126          -0.157522
hessian_block_lv_atom        1       2           0.009225          -0.349310          -0.345136           0.049334          -0.148926          -0.151397           0.044087          -0.191629          -0.186800
hessian_block_lv_atom        1       3           0.150904           0.679678           0.674042           0.077212           0.292165           0.292934           0.075531           0.360169           0.353793
hessian_block_lv_atom        1       4          -0.020943          -0.013644          -0.014951          -0.021352          -0.008514          -0.008031          -0.006933          -0.007415          -0.009472
hessian_block_lv_atom        2       1          -0.315797          -0.126677          -0.325484          -0.134703          -0.097749          -0.140974          -0.162199          -0.105412          -0.165754
hessian_block_lv_atom        2       2          -0.349917           0.022244          -0.358709          -0.145734           0.052016          -0.150950          -0.193946           0.051303          -0.196219
hessian_block_lv_atom        2       3           0.678735           0.129820           0.694102           0.289364           0.069004           0.298421           0.362140           0.063485           0.367639
hessian_block_lv_atom        2       4          -0.013021          -0.025387          -0.009909          -0.008928          -0.023271          -0.006496          -0.005995          -0.009376          -0.005667
hessian_block_lv_atom        3       1          -0.311893          -0.324348          -0.129601          -0.132139          -0.139631          -0.099070          -0.156931          -0.164091          -0.109063
hessian_block_lv_atom        3       2          -0.343267          -0.356233           0.017915          -0.150234          -0.152979           0.054386          -0.186295          -0.193396           0.046434
hessian_block_lv_atom        3       3           0.670110           0.691113           0.135686           0.290543           0.298831           0.068380           0.352422           0.364298           0.069933
hessian_block_lv_atom        3       4          -0.014951          -0.010532          -0.024000          -0.008170          -0.006220          -0.023696          -0.009196          -0.006810          -0.007304
