 # Version information for this restart file 
 # current date 2024-07-05 08:12:26.164
 # current working dir /scratch-grete/usr/nichdsas/test_parser/cp2k-2024.1/cell_opt_medium
 # Program compiled at                                       2024-05-28 17:35:28
 # Program compiled on                                                          
 # Program compiled for                                                   x86_64
 # Source code revision number                                                  
 &GLOBAL
   PRINT_LEVEL MEDIUM
   PROJECT_NAME "aiida"
   RUN_TYPE CELL_OPT
 &END GLOBAL
 &MOTION
   &CELL_OPT
     OPTIMIZER BFGS
     MAX_DR  5.0000000000000003E-002
     MAX_FORCE  5.0000000000000003E-002
     RMS_DR  5.0000000000000003E-002
     RMS_FORCE  5.0000000000000003E-002
     STEP_START_VAL 3
     TYPE DIRECT_CELL_OPT
     PRESSURE_TOLERANCE  5.0000000000000000E+002
   &END CELL_OPT
 &END MOTION
 &FORCE_EVAL
   METHOD QS
   STRESS_TENSOR ANALYTICAL
   &DFT
     BASIS_SET_FILE_NAME BASIS_MOLOPT
     BASIS_SET_FILE_NAME BASIS_MOLOPT_UCL
     POTENTIAL_FILE_NAME GTH_POTENTIALS
     &SCF
       MAX_SCF 150
       EPS_SCF  1.0000000000000000E-004
       SCF_GUESS RESTART
       &MIXING T
         METHOD BROYDEN_MIXING
         ALPHA  2.9999999999999999E-001
         NBUFFER 20
       &END MIXING
     &END SCF
     &QS
       EPS_DEFAULT  9.9999999999999998E-013
     &END QS
     &MGRID
       NGRIDS 4
       CUTOFF  4.0000000000000000E+002
       REL_CUTOFF  4.0000000000000000E+001
     &END MGRID
     &XC
       DENSITY_CUTOFF  1.0000000000000000E-010
       GRADIENT_CUTOFF  1.0000000000000000E-010
       TAU_CUTOFF  1.0000000000000000E-010
       &XC_FUNCTIONAL NO_SHORTCUT
         &PBE T
         &END PBE
       &END XC_FUNCTIONAL
     &END XC
     &POISSON
       PERIODIC XYZ
     &END POISSON
     &KPOINTS
       SCHEME "MONKHORST-PACK" "4" "4" "4"
     &END KPOINTS
   &END DFT
   &SUBSYS
     &CELL
       A -1.8076143527222501E-002  4.6753811000000001E+000  4.6753811000000001E+000
       B  4.6942527658939079E+000 -1.8037417537765419E-002  4.6753811000000001E+000
       C  4.6941280434890977E+000  4.6940902636998052E+000 -1.7993608900242423E-002
       PERIODIC XYZ
       MULTIPLE_UNIT_CELL 1 1 1
     &END CELL
     &COORD
       Cs  2.3415663327815985E+000  2.3368914851428149E+000  2.3322759260224175E+000
       Cs  7.0287311914321373E+000  7.0145239784549975E+000  7.0004855506314714E+000
       Cs  4.6851583591463459E+000  4.6757280290050351E+000  4.6663902190101387E+000
       Sb  1.1142300153891991E-006  7.4286001016274640E-006  1.1898861344321119E-006
     &END COORD
     &KIND "Cs"
       BASIS_SET "DZVP-MOLOPT-SR-GTH"
       POTENTIAL "GTH-PBE-q9"
       &POTENTIAL
         3 6
           5.4000000000000004E-001 2  3.3313316759999999E+001 -2.9212167000000000E+000
         4
           4.6189567999999998E-001 2 -3.3229270000000000E+000  2.4556533800000002E+000
                                                              -3.1702348800000002E+000
           3.6635859999999998E-001 2 -4.9507640500000001E+000  8.4038977000000004E-001
                                                              -9.9436259000000005E-001
           7.6150192999999999E-001 1  1.9840722999999999E-001
           5.9701503000000000E-001 1 -1.5505669300000000E+000
         # Potential name: GTH-PBE-Q9 for element symbol: CS
         # Potential read from the potential filename: GTH_POTENTIALS
       &END POTENTIAL
     &END KIND
     &KIND "Sb"
       BASIS_SET "DZVP-MOLOPT-SR-GTH"
       POTENTIAL "GTH-PBE-q5"
       &POTENTIAL
         2 3
           5.8999999999999997E-001 1  7.9285208400000000E+000
         3
           5.5613636000000000E-001 3  1.4304779000000001E+000  1.2614259900000000E+000 -9.2323352999999997E-001
                                                              -3.1301334000000001E+000  2.3837787200000000E+000
                                                                                       -1.8920657000000001E+000
           6.2275506999999997E-001 2  5.6147232999999996E-001  3.0484521999999997E-001
                                                              -3.6069772999999999E-001
           8.8948576000000001E-001 1  2.7086863999999999E-001
         # Potential name: GTH-PBE-Q5 for element symbol: SB
         # Potential read from the potential filename: GTH_POTENTIALS
       &END POTENTIAL
     &END KIND
     &TOPOLOGY
       NUMBER_OF_ATOMS 4
       MULTIPLE_UNIT_CELL 1 1 1
     &END TOPOLOGY
   &END SUBSYS
 &END FORCE_EVAL
