&FORCE_EVAL
   &DFT
      BASIS_SET_FILE_NAME BASIS_MOLOPT
      &MGRID
         CUTOFF 280
         NGRIDS 4
         REL_CUTOFF 30
      &END MGRID
      &POISSON
         PERIODIC none
         PSOLVER MT
      &END POISSON
      POTENTIAL_FILE_NAME GTH_POTENTIALS
      &QS
         EPS_DEFAULT 1e-8
         EXTRAPOLATION_ORDER 3
         WF_INTERPOLATION ps
      &END QS
      &XC
         &XC_FUNCTIONAL PBE
         &END XC_FUNCTIONAL
      &END XC
   &END DFT
   METHOD Quickstep
   &SUBSYS
      &CELL
         A 6.0             0.0             0.0            
         B 0.0             4.0             0.0            
         C 0.0             0.0             4.737166       
         PERIODIC none
      &END CELL
      &COORD
H       2.0000000000000000        2.0000000000000000        2.7371660000000002
H       2.0000000000000000        2.0000000000000000        2.0000000000000000
H       4.0000000000000000        2.0000000000000000        2.7371660000000002
H       4.0000000000000000        2.0000000000000000        2.0000000000000000
      &END COORD
      &KIND H
         BASIS_SET DZVP-MOLOPT-SR-GTH
         POTENTIAL GTH-PBE-q1
      &END KIND
      &KIND H_ghost
         BASIS_SET DZVP-MOLOPT-SR-GTH
         GHOST
      &END KIND
   &END SUBSYS
   &BSSE
     &FRAGMENT
       LIST 1..2
     &END FRAGMENT
     &FRAGMENT
       LIST 3..4
     &END FRAGMENT
   &END BSSE
&END FORCE_EVAL
&GLOBAL
   PROJECT aiida
   RUN_TYPE BSSE
   PRINT_LEVEL LOW
&END GLOBAL

