 # Version information for this restart file 
 # current date 2022-01-03 08:05:55.991
 # current working dir /scratch/usr/nichdsas/cp2k-parser-tests/8.2/md_nvt_low
 # Program compiled at                              Tue Dec 21 15:57:32 CET 2021
 # Program compiled on                                                   glogin5
 # Program compiled for                                          hlrn-gompi-foss
 # Source code revision number                                       git:310b7ab
 &GLOBAL
   PRINT_LEVEL  LOW
   PROJECT_NAME aiida
   RUN_TYPE  MD
 &END GLOBAL
 &MOTION
   &MD
     ENSEMBLE  NVT
     STEPS  5
     TIMESTEP     4.9999999999999994E-01
     STEP_START_VAL  5
     TIME_START_VAL     2.4999999999999996E+00
     ECONS_START_VAL    -1.1028095256884490E+03
     TEMPERATURE     3.0000000000000000E+02
     &THERMOSTAT
       TYPE  NOSE
       REGION  MASSIVE
     &END THERMOSTAT
     &AVERAGES  T
       &RESTART_AVERAGES
         ITIMES_START  1
         AVECPU     4.1764685967564581E+01
         AVEHUGONIOT     0.0000000000000000E+00
         AVETEMP_BARO     0.0000000000000000E+00
         AVEPOT    -1.1033662327812967E+03
         AVEKIN     2.8308815512455621E-01
         AVETEMP     3.1038910593732879E+02
         AVEKIN_QM     0.0000000000000000E+00
         AVETEMP_QM     0.0000000000000000E+00
         AVEVOL     1.2928894580884409E+04
         AVECELL_A     2.3470398570439684E+01
         AVECELL_B     2.3470398570439684E+01
         AVECELL_C     2.3470398570439684E+01
         AVEALPHA     9.0000000000000000E+01
         AVEBETA     9.0000000000000000E+01
         AVEGAMMA     9.0000000000000000E+01
         AVE_ECONS    -9.0405807187737927E-02
         AVE_PRESS     0.0000000000000000E+00
         AVE_PXX     0.0000000000000000E+00
       &END RESTART_AVERAGES
     &END AVERAGES
   &END MD
 &END MOTION
 &FORCE_EVAL
   METHOD  QS
   &DFT
     BASIS_SET_FILE_NAME BASIS_MOLOPT
     POTENTIAL_FILE_NAME GTH_POTENTIALS
     MULTIPLICITY  1
     CHARGE  0
     &SCF
       MAX_SCF  30
       EPS_SCF     1.0000000000000001E-05
       SCF_GUESS  ATOMIC
       &OT  T
         MINIMIZER  DIIS
         PRECONDITIONER  FULL_SINGLE_INVERSE
       &END OT
       &OUTER_SCF  T
         EPS_SCF     9.9999999999999995E-07
         MAX_SCF  5
       &END OUTER_SCF
       &PRINT
         &RESTART  OFF
         &END RESTART
       &END PRINT
     &END SCF
     &QS
       EPS_DEFAULT     1.0000000000000000E-08
       EXTRAPOLATION  ASPC
       METHOD  GPW
     &END QS
     &MGRID
       CUTOFF     4.0000000000000000E+02
     &END MGRID
     &XC
       DENSITY_CUTOFF     1.0000000000000000E-10
       GRADIENT_CUTOFF     1.0000000000000000E-10
       TAU_CUTOFF     1.0000000000000000E-10
       &XC_FUNCTIONAL  NO_SHORTCUT
         &PBE  T
         &END PBE
       &END XC_FUNCTIONAL
       &VDW_POTENTIAL
         POTENTIAL_TYPE  PAIR_POTENTIAL
         &PAIR_POTENTIAL
           R_CUTOFF     1.6000000000000000E+01
           TYPE  DFTD3
           PARAMETER_FILE_NAME dftd3.dat
           REFERENCE_FUNCTIONAL PBE
         &END PAIR_POTENTIAL
       &END VDW_POTENTIAL
     &END XC
     &POISSON
       PERIODIC  XYZ
     &END POISSON
   &END DFT
   &SUBSYS
     &CELL
       A     1.2420000000000000E+01    0.0000000000000000E+00    0.0000000000000000E+00
       B     0.0000000000000000E+00    1.2420000000000000E+01    0.0000000000000000E+00
       C     0.0000000000000000E+00    0.0000000000000000E+00    1.2420000000000000E+01
       MULTIPLE_UNIT_CELL  1 1 1
     &END CELL
     &COORD
O    3.8476523449571123E+00   -4.7572858050839546E+00    5.5115245845274767E+00
H    4.1497688750467425E+00   -5.5056491468484232E+00    6.0683847935870467E+00
H    3.0574142856891560E+00   -4.2852793714456974E+00    5.9390440531958131E+00
O   -3.5402253350684858E+00    1.7506229286990216E+00    4.2923541522524946E+00
H   -3.3923308488365973E+00    7.6122192084084572E-01    4.1612148599187346E+00
H   -3.6132926516188189E+00    1.8605078693837647E+00    5.2190171694537648E+00
O    4.5456227369049049E+00    2.9364709654492809E+00   -7.1008090148461962E+00
H    3.6179751341721222E+00    3.2240598201866164E+00   -6.7885720683933597E+00
H    4.5034151434952845E+00    2.8172408121255965E+00   -8.0457501673143632E+00
O   -2.5785360701602467E+00   -1.3225011917193513E-01   -3.4094899453087084E+00
H   -2.0377144059978907E+00    4.1032370952125596E-01   -2.8178529424964220E+00
H   -1.9113812227585441E+00   -6.4750225922129756E-01   -3.9657431797304725E+00
O   -3.7612751781646994E+00   -7.7162625969845582E+00    5.6315818858479574E+00
H   -4.6675601840473373E+00   -7.4669052285251665E+00    5.9330779566098419E+00
H   -3.8356875331247600E+00   -7.5737707145210837E+00    4.5981656360934027E+00
O   -6.7019957337359388E+00   -8.2861220554712331E-02    2.3103323677972885E+00
H   -6.0574628097447851E+00   -4.0113626353006721E-01    2.9842795718341466E+00
H   -6.2720675019408176E+00    7.6721682191582607E-01    1.9953644491113727E+00
O    4.0181391743713073E+00   -5.5759277303593526E+00   -4.2079929936792426E-01
H    3.3115878232581886E+00   -5.6289378425867582E+00    2.7504291294838268E-01
H    3.8885985801956631E+00   -4.6884479194353874E+00   -8.3151281881583183E-01
O   -2.6708576949909331E+00   -3.0839192551300623E+00   -1.2293555948736719E+00
H   -3.2784731009348738E+00   -2.4928517043320637E+00   -1.7005493999628776E+00
H   -2.1136787674197621E+00   -2.5088166924488680E+00   -6.1932268451512862E-01
O    5.4469281151470765E+00   -3.1793901877087971E+00    3.0960552196850495E+00
H    4.6376570933965109E+00   -3.2479162718423793E+00    3.6944993140113844E+00
H    5.2230696006489632E+00   -2.9639622866542972E+00    2.1363158953303465E+00
O    2.0184499198940511E+00    3.8060650714846536E+00   -6.6620655262876012E+00
H    1.3770270881946489E+00    3.0724805897736562E+00   -6.8197760192857091E+00
H    1.8113229813229739E+00    4.0875976326934023E+00   -5.7405793843037056E+00
O    4.0538238544566187E+00   -3.8994257686877534E+00   -3.0621926940400250E+00
H    3.2831921474224970E+00   -3.7755340300300424E+00   -3.6390884461175284E+00
H    4.3321435234711618E+00   -2.9743342065726575E+00   -2.8927125128400046E+00
O    1.9911703732456920E+00   -1.8367531062048379E+00    1.0233832764696524E+00
H    1.6415785666694518E+00   -2.4879456056886631E+00    1.6750237694150678E+00
H    1.6430063990315751E+00   -1.9673461191292339E+00    1.1436041735466979E-01
O    7.2383887176274175E-01   -5.7477507718415861E+00   -5.0089689076247721E+00
H    1.4318282157472320E+00   -6.3710100862529364E+00   -4.8600287924978192E+00
H    4.2543137375775136E-01   -5.7398823571426911E+00   -5.9181545028360460E+00
O   -7.5227084346099913E+00   -8.6742981035856204E+00   -3.2517552226750563E+00
H   -7.8286284817215073E+00   -9.6036261441206801E+00   -3.1089855912073614E+00
H   -7.1226807184418721E+00   -8.4938123683083511E+00   -2.3915267525347677E+00
O    2.9967200156559355E+00   -1.6392410905018666E+00    5.1746010777225155E+00
H    3.8342030212752043E+00   -1.7514749930662521E+00    5.6695194537923514E+00
H    3.2093996997923955E+00   -8.8513093132518972E-01    4.6032000637673960E+00
O   -9.3981066674306515E-02    1.8627605856179184E+00   -6.7010856623756991E+00
H    2.4851356678245703E-01    1.0300354674734942E+00   -6.3180135358249592E+00
H   -7.9108504512266833E-03    1.7256021883190005E+00   -7.6424884312106220E+00
O    1.3949219369907961E+00   -3.0865100270445955E+00    3.6637438783936589E+00
H    2.0118709927544765E+00   -2.6436372138266888E+00    4.2977354609648293E+00
H    1.0859631661237070E+00   -3.9138054749474032E+00    3.9689922570583582E+00
O   -2.3282066405595376E+00    2.7977935219202048E+00    2.2332326540692957E+00
H   -1.6086213624537966E+00    2.1098694689162745E+00    2.1098585646475159E+00
H   -2.7965698486218988E+00    2.5965913802415868E+00    3.0832178048295287E+00
O    8.8204856087087846E-01   -6.5407493951289064E-01   -5.6103944774677315E+00
H    1.7808054571721073E+00   -8.1324037281487060E-01   -6.0954143079316134E+00
H    1.1758966985808990E+00   -2.4051657644856805E-01   -4.7397617571595214E+00
O   -1.1659508185836664E+00   -7.1870873916100630E-01    2.2045955911837037E-01
H   -1.0883294195555500E+00    2.3040193607122406E-01   -6.1035711710604512E-02
H   -9.9175182802152972E-01   -7.6019376872769440E-01    1.1521247065044218E+00
O   -3.8848294046916139E+00   -9.0050432615243388E+00   -3.1129051416291489E+00
H   -4.4951589798980667E+00   -8.2402528898188194E+00   -3.1462578685698115E+00
H   -2.9514136351878237E+00   -8.6631350126532904E+00   -3.1310574144614458E+00
O    4.9788070674497451E+00    4.5789816263372227E+00    2.1732999987436972E+00
H    4.5821871687594955E+00    4.0917957453971043E+00    1.4196794100544121E+00
H    4.1990040773305610E+00    4.9855029389955305E+00    2.6443519348732041E+00
O    4.2125979079902374E+00    1.0320643193079522E+00   -3.2075179558690210E+00
H    4.6109829830420699E+00    9.2892321051861182E-01   -4.1218526723301379E+00
H    4.4390493108605789E+00    1.9775575957021124E-01   -2.6646120146673207E+00
O   -5.2049429059744057E+00   -6.3435776378949154E+00   -2.6938083039228937E+00
H   -5.4127114218263994E+00   -6.0011639282017235E+00   -1.7785273078979404E+00
H   -5.9895092842606399E+00   -6.0787615532548198E+00   -3.2115273884013877E+00
O    4.8297826545058165E+00   -2.1460301274331335E+00    6.9148834614081833E-01
H    5.1654009966326031E+00   -1.3040323033120937E+00    1.1898607007938375E+00
H    3.8455341599819146E+00   -2.0002332379073766E+00    8.3128074694201148E-01
O    2.1233117341287908E+00    9.4619723053581395E-01    1.6988741636283009E+00
H    2.8186775415154566E+00    1.5138894727197949E+00    1.3030530792811121E+00
H    2.3787825058190157E+00    7.7819659130710261E-02    1.3043882201252934E+00
O   -5.7551611465470520E+00   -5.0952218493453687E+00   -3.6631930630238324E-01
H   -6.6280136223405099E+00   -5.4636281708206935E+00   -2.4921708320056760E-01
H   -5.9110110075797859E+00   -4.1636564688783020E+00   -6.3274687694898790E-01
O   -4.8451714031716779E+00    4.6295334585666188E+00    2.6237514891609672E+00
H   -5.8338666198480960E+00    4.7080363053695962E+00    2.3479137323581836E+00
H   -4.7458081160502399E+00    3.7721490593574121E+00    2.2497939500698907E+00
O    5.4878855705818745E+00    8.5034780893516049E-01   -5.6028979824573959E+00
H    6.3743017184711874E+00    1.1349259102086753E+00   -5.4292715072625697E+00
H    5.0537462814948340E+00    1.4711340892448159E+00   -6.2287574403135961E+00
O    7.4203322552736717E-01   -1.9094702528728122E+00   -1.2632027025492707E+00
H    4.4137034539481351E-01   -2.7336832765823149E+00   -1.7944160149765265E+00
H   -4.2908696079471620E-02   -1.6733857432078958E+00   -7.3041999635127020E-01
O    3.8980938339558886E+00    2.6153010043282703E+00    9.9147125366513864E-02
H    4.6403480981778999E+00    2.4145249094265977E+00   -4.7663747629381653E-01
H    3.2891603467418249E+00    3.2296918292348695E+00   -4.2733128908356532E-01
O   -1.0877513901562317E+00   -1.3777923395916083E+00    2.9398761220063148E+00
H   -3.4537839568493961E-01   -2.0215520765893458E+00    3.1568884354793081E+00
H   -1.8639888134401161E+00   -1.9985169512900773E+00    3.1409485824666783E+00
O    2.0638896927987949E+00   -5.6291011757085823E+00    1.3589710299735218E+00
H    1.2241783584131627E+00   -6.1510749855615456E+00    1.2679508744038535E+00
H    2.3326177588319670E+00   -5.9010392283195925E+00    2.2929757835968840E+00
O   -6.3569086027817512E-01   -3.8243248754036343E+00   -2.8366279595407025E+00
H   -1.5662129729812382E+00   -3.7833270203506562E+00   -2.5291166488599708E+00
H   -4.9298200742203874E-01   -4.5871868985511384E+00   -3.4240910833449343E+00
O   -5.2851512109669345E+00    2.0768708245480134E+00    1.4481115858432176E+00
H   -4.4422170889683619E+00    1.9152768632761055E+00    1.8936235989150676E+00
H   -5.1150416755793886E+00    1.9171778267921757E+00    4.0737244013754298E-01
O    1.9669863117946236E+00   -3.4196229492762322E+00   -5.2669059658918691E+00
H    1.3750718858907993E+00   -4.1805080769640144E+00   -5.0353539264655316E+00
H    1.2819814803749812E+00   -2.7503526181906657E+00   -5.5587757658794850E+00
O   -1.1889920589633558E+00    3.9307389053071491E+00   -3.3708834015967670E+00
H   -1.1787154565301978E+00    3.9419830076554137E+00   -4.3411649698330326E+00
H   -7.1845294145304606E-01    4.6814274379307941E+00   -2.9586563662148948E+00
O   -5.4351472245047594E+00   -5.0029878701923396E+00    4.2721509154917490E+00
H   -6.1341561959028779E+00   -4.5172180492452503E+00    3.7438348610105887E+00
H   -4.8014611150820423E+00   -5.3898970282243610E+00    3.6908832263974163E+00
O    2.9745722732030107E+00    5.8010080878297083E+00    3.5990243212730402E+00
H    3.3436117805169903E+00    6.5046387713713338E+00    4.1958504008001274E+00
H    2.4290421504519957E+00    5.1852393010600570E+00    4.1434139300301887E+00
O   -4.0472619461952997E+00    1.5479345625669203E+00   -5.0681202895162496E+00
H   -3.5802922676943965E+00    7.9842284342184189E-01   -4.5877340538627882E+00
H   -4.0205428252834920E+00    2.3137535160455656E+00   -4.4776027916633057E+00
O    3.4766154248639318E+00    5.9361944393506216E-01    4.0095344644104003E+00
H    2.8661401107298743E+00    5.7444569001116375E-01    3.2024647194268958E+00
H    4.3028271425506057E+00    4.3761810507559201E-01    3.5393745881632714E+00
O   -4.6151927577920695E+00   -1.0200372537614295E+00    3.9979255354638497E+00
H   -5.3499961071482964E+00   -1.2503060327899449E+00    4.6822322626441739E+00
H   -4.1870833766621498E+00   -1.9226608080819669E+00    3.7843979120418125E+00
O   -2.1567122495703142E-01    1.2745000876647277E+00    3.1331105884015793E+00
H    6.7635956277770792E-01    1.3931430519330283E+00    2.7218210449620774E+00
H   -4.1944694327972687E-01    2.8540357909495612E-01    3.0672267493637455E+00
O   -1.9871618532263722E+00    5.0471641083507146E+00    5.9072481891127848E-01
H   -2.2950991526758888E+00    4.1788806370792422E+00    9.8617600529456906E-01
H   -2.6184585947802366E+00    5.7603568381611758E+00    7.7989576221775136E-01
O   -1.2975881417307353E+00   -1.8959862203527647E+00   -4.9488676293755223E+00
H   -8.4447962645445440E-01   -2.4260000461612559E+00   -4.2026563070401659E+00
H   -5.1753501843375416E-01   -1.3190541366490087E+00   -5.4058824529296983E+00
O   -5.1474696587115094E+00    1.8163602675673474E+00   -1.2949290984394677E+00
H   -4.6896927580947017E+00    2.4822427272933107E+00   -1.8862938400147153E+00
H   -5.3630314051647003E+00    1.1054334265096286E+00   -1.9187615885832860E+00
O   -7.3725434742878351E+00   -1.2310127856406736E+00   -1.9463011288178229E+00
H   -6.4119126325068505E+00   -1.1004746924920283E+00   -2.1520263421257182E+00
H   -7.4688554267793608E+00   -1.5237200531108164E+00   -9.9634737929803208E-01
O   -4.6255626947361533E-01    1.4130274566735359E+00   -1.7108565841574006E+00
H   -7.8643554080037992E-01    2.1962037671321775E+00   -2.1750997913423280E+00
H    2.6310886007775192E-01    9.6355335386835128E-01   -2.2298453468219610E+00
O   -3.7631700678172224E-02   -6.5074356495994170E+00   -1.0950836222099001E+00
H    9.8611690372124392E-03   -5.5508987336300031E+00   -1.1092574073611750E+00
H   -8.2215615804538855E-01   -6.7760983077920374E+00   -4.1315389335005859E-01
O    5.7092953168077063E+00   -1.6930826194698516E+00    6.0203052268440977E+00
H    6.0008777991717643E+00   -2.4972487317509229E+00    6.4746994926580568E+00
H    5.7439407743611692E+00   -9.4493709210745236E-01    6.6246631099001059E+00
O   -2.6041076458987691E+00   -5.7826158332352744E+00   -4.2098624993981923E+00
H   -2.6171910552276634E+00   -6.6894846050515238E+00   -4.5501195654889770E+00
H   -3.5116730731288555E+00   -5.4989318627693748E+00   -3.8835192493213695E+00
O   -4.9429946891799501E+00   -1.4023936323824715E+00   -3.2393776540057369E+00
H   -4.9684997748230124E+00   -2.2666220860031223E+00   -3.7719727180941716E+00
H   -4.0141724213104268E+00   -1.0704405747990846E+00   -3.2380430366836546E+00
O    2.2895911045899351E+00   -8.0798070753155606E+00   -1.2247156520413447E+00
H    1.2856438639152106E+00   -8.1069476688888127E+00   -1.1243076406328445E+00
H    2.5362593229358867E+00   -7.1181913378789048E+00   -1.1713415255753987E+00
O    6.7772676934842666E+00   -3.8953014887071382E+00   -5.3356045359030659E+00
H    7.6152664451632308E+00   -4.1737054778426597E+00   -5.8350922533497220E+00
H    6.0291766242350535E+00   -4.4270201087656105E+00   -5.6850555948126686E+00
O   -3.4356171039261341E-01    4.9716797630947402E+00    2.9576523493804983E+00
H   -6.6110926145608462E-01    4.2334406802270443E+00    3.4704273464959607E+00
H   -7.2136220206299517E-01    4.8440026843339643E+00    2.0571830811296041E+00
O   -2.8150516805287289E+00   -3.9995836216161278E+00    6.2244319342278276E+00
H   -2.4306786593802046E+00   -4.5870032088842585E+00    6.9104099631806353E+00
H   -2.4092687081264952E+00   -3.1557886888084510E+00    6.3980625027960869E+00
O   -2.7965980948775915E+00   -3.4832106743804720E+00    3.4713732603642109E+00
H   -3.0913923244758941E+00   -3.8818847039106505E+00    4.2789501870483271E+00
H   -3.2323225283815620E+00   -4.0479081706502500E+00    2.8242419017607054E+00
O    2.4871837245327977E+00    4.6840691935262679E+00   -3.9634428257599366E+00
H    3.3977920886867827E+00    4.5378401690626751E+00   -3.6105312751833649E+00
H    1.9752092419755847E+00    4.5646399046261052E+00   -3.0919996844416722E+00
O    1.6536854515617117E+00    5.4820618014466763E-02   -3.1023547997480496E+00
H    1.6049118720593687E+00   -5.9146989847131282E-01   -2.3646874318393589E+00
H    2.4635680801736366E+00    5.6108543631787267E-01   -3.0510933207563986E+00
O   -1.2128596315819560E+00   -8.1736108386126425E+00   -6.3553779594308288E+00
H   -8.9701002960674692E-01   -9.0549708078445743E+00   -6.5665804200111992E+00
H   -2.1546148637623457E+00   -8.0407590797834416E+00   -6.5301191355941937E+00
O   -4.6762851948539796E-01    8.3701641440729073E+00    6.0210616779600934E-01
H    3.3708755245952254E-01    8.2868070139897849E+00    1.1589118664265143E+00
H   -1.2126860260781884E+00    8.0371558675147128E+00    1.1271839674367268E+00
O    5.8900381761714753E+00   -6.7862394276443334E+00   -6.6126980627013525E+00
H    5.4363292295434977E+00   -7.5720762871660465E+00   -6.9478539003220749E+00
H    6.1310034891222775E+00   -6.1526391986164946E+00   -7.3565409001072615E+00
O   -3.5556832836198554E-01   -5.2572702952809367E+00    4.6698016653860348E+00
H   -3.7629095652461780E-01   -6.0985178307570438E+00    4.0714635577627138E+00
H   -1.2809813191995334E+00   -5.1437750820949732E+00    4.9671452953012354E+00
O   -3.8179546017830912E+00   -5.5296910459424584E+00    1.7936571244063431E+00
H   -4.0725918834717598E+00   -6.4204998325706111E+00    2.1294647572842949E+00
H   -4.3943224119084974E+00   -5.2907483180562043E+00    1.0079043582546867E+00
     &END COORD
     &VELOCITY
          -2.0012457712229533E-04   -7.9571378317538417E-05    2.9984680829211069E-05
          -1.2494326912729219E-03    1.1976358492798937E-03    1.2820396974112516E-03
          -4.4581629913614693E-04    4.0460429825207460E-04    6.8472233715134116E-04
           1.0549626124890429E-04    7.3251624078133620E-05    2.4124410733534330E-05
          -8.3822967140431822E-04   -1.2966589415713105E-03    3.2445663631064403E-04
          -1.9014667384380005E-04   -1.4497319833485115E-03    2.8895298387376463E-05
          -4.2753793584992411E-04    6.2048125745548508E-05    4.5688621902473211E-05
          -9.3824598421590993E-04   -2.3104760137784302E-04    2.9482832750103866E-05
          -1.0942714383869524E-06    4.4090542283345868E-04   -7.4329891284553298E-04
          -1.0360820733736803E-04   -5.0481769401760951E-04    6.7921451400112875E-05
           4.2370666798247742E-04    4.1257605661511706E-04    8.7174139320899996E-04
          -6.7007680068975964E-04   -7.8640944270259741E-04   -7.7067966683925756E-04
           1.8778953026353051E-05   -8.2502210955837655E-05   -1.0697408282118713E-05
          -7.2986779279572841E-04   -8.5038040261883787E-04   -1.0345005587405573E-03
           2.0557612458839181E-04    8.6712430125998174E-04   -4.0570711130991976E-05
           2.0269724882309847E-04   -1.2591047106646122E-04   -1.1454838595222890E-04
          -3.2505219900497536E-04    9.2265653150629373E-04   -7.5986178499193497E-04
          -2.3979482916013748E-04    5.8319215315636222E-04    6.3751357015557600E-04
           1.4167735835405863E-04    8.5198169301559974E-05   -1.5080597830355037E-04
          -5.0020291846051581E-04   -2.0188259888434423E-04   -3.8674864928632633E-04
          -4.2863288677165722E-04    1.4758026323208754E-03   -2.7018917688960940E-04
          -3.5182620899954209E-05   -5.2582012811313058E-05   -7.9424172303947074E-05
          -4.3295584940237347E-04   -7.7297278965717464E-04    9.5087227751621982E-04
           1.3198930820414879E-03    1.7779016945763276E-03   -8.5954129901123723E-04
          -1.8825441256350214E-04   -2.0092650417221429E-04   -7.4859477712466708E-05
          -8.4524694295473612E-04    9.8994922664030364E-05    9.4961113327512439E-04
          -8.7648124133584196E-04    1.4698840724140592E-03    5.6799906675316768E-04
           1.9318639542678127E-04    7.3837554489712166E-05   -3.2883599375910065E-04
          -2.0727729023295718E-04   -6.5245698911292044E-05   -2.2077806430675836E-04
          -2.6692541353035628E-04    3.7201678378599745E-04   -5.1265235452554667E-04
          -1.6997503659289909E-04   -1.2601929953794238E-04   -7.0846008298758686E-05
           1.3284692510428719E-03   -1.1566855222467762E-03    1.2963541455543715E-03
           1.8358417317813349E-04    5.5717266203171838E-04    1.8297220106322405E-03
           2.8854906012308899E-04    1.5942968516326246E-04    2.3883452976000705E-05
           1.4641944034359609E-03   -2.3219002347060701E-04    3.9384548615945669E-04
           1.8791161586215443E-04   -1.2764448551124531E-03    9.4096533122505399E-04
          -2.2278965238517695E-04   -2.3363024497725540E-05    6.9919417658382250E-05
          -1.8711046744423817E-04   -1.4133671376253183E-03   -6.8892105078370461E-04
          -6.1361323356587947E-04   -8.3018614212922084E-04   -2.7898898822752946E-04
          -1.2103101465669718E-04    5.0136547238533828E-05   -2.5304864453787324E-04
           8.0833887502953204E-04   -1.4567722240249031E-04   -7.8573167136525963E-04
           3.9169095423223233E-04    1.8949800229262786E-03   -6.4986933576272250E-04
          -2.5356535920393789E-04   -3.8567965555307395E-04    1.1959049949479038E-04
          -1.6054445758808763E-04    8.4415838961638713E-04   -3.5436954308767492E-04
           9.5749286765081361E-04   -3.8734843031407650E-04   -5.2143405988559191E-04
           1.5836997963405638E-05    2.9523539023241442E-05   -2.2762706719191915E-04
           3.3713582175908685E-04   -1.0214867359718590E-03    3.0843748080059438E-04
           6.6848039721477490E-04   -5.5696762203246461E-04   -9.7655063770841805E-04
           2.7581393130459391E-04   -2.3954433423332077E-05    9.9829319619236648E-06
           2.1507978189304946E-04    6.0158302101482534E-04   -2.0309802615267369E-04
          -6.2815201554760204E-04    6.6585856446696006E-05    2.9269218672850174E-04
           1.5161557403430491E-05   -1.4235920621579097E-04   -7.3358069965915194E-05
           2.9174676130381323E-05   -1.2451239915035349E-04   -1.0954389365184821E-03
          -6.4081887137191563E-04    6.7521798796761978E-05    2.4767619726067091E-04
           1.9368049307248633E-04    1.5527226759327856E-04   -2.0611599133591460E-04
           5.6212934508133858E-04   -1.8580641156747735E-05    2.9051806435345954E-04
          -4.5662686315375460E-04   -2.8489762092972544E-04    3.8613082686094657E-04
           3.7219316506013618E-04   -1.4784597716510755E-05   -4.8709689120359482E-04
           8.7855513279404859E-04   -5.7150845509386036E-04    2.8094706820469719E-04
          -1.0255424660599085E-03    3.3142812866958252E-04   -9.2119866948720214E-05
           3.5140057237551842E-05    1.1592927265027423E-04    3.4254716574459742E-04
          -6.0730937616189445E-05    1.3101058555604671E-03    1.3054244301525745E-03
          -7.1455406610007577E-04    1.2949623539262149E-03   -4.5191230726140282E-05
          -1.2443961589066086E-05    3.9489497656724630E-04    2.3540490481198034E-04
           1.5807396014137667E-04    1.5255011939623400E-04   -5.6022801045830541E-04
          -4.8180591973980468E-06    1.4884287331315435E-03   -4.8909186297728391E-04
           8.1484251229805210E-05    3.7523203179353468E-05    1.4211934071800431E-04
          -4.6294118380025449E-05    1.3499501394693245E-03   -1.4359121912931884E-03
           3.6949290660609225E-04    3.7037136337158009E-04    1.1894572821673759E-03
           1.1723794725918989E-04    2.5595055888519878E-05   -2.5822562056341256E-04
          -5.1149166338664931E-04    1.7717807972384520E-03    1.3155325530758016E-04
          -5.5915549479393398E-05    2.7700843169553254E-04   -1.2984843823733432E-03
           4.4386936314209540E-05    8.7063179974018561E-05   -8.4051975114738615E-05
           1.5854446273315078E-04    1.4196030955348337E-03    4.1423559077744882E-04
          -8.2568262858575734E-04    1.3066522897437612E-05    7.3550083364904209E-04
           2.8249492069623528E-04    9.2696998733361415E-05    4.1579831376017938E-05
           1.1918530574610996E-03    5.2545375675061654E-04    6.4107147578783719E-04
           7.7831368080201815E-04   -4.0489896401153406E-04    2.1577512948166262E-04
           1.0325188633542509E-04   -8.3728802066525297E-07   -9.3386763041379949E-05
           2.6655655317272457E-04   -5.8591436858440452E-04    1.4192059672401595E-04
           5.0056872195186858E-04    1.9022373351225620E-04    1.1291542687150559E-03
           5.7710316645717487E-05   -8.1844361357675781E-05   -1.5849162918010905E-04
          -4.0579703917275203E-05   -1.7009555938837453E-04    1.1201631343424872E-04
           7.0935852562686722E-04    1.6057848093655436E-03   -8.1897947344862095E-05
          -5.2160952406948749E-04   -7.1201826659339070E-05   -1.8851119885661928E-04
           5.4257466146684851E-04   -6.1295098109030038E-04   -1.4755575385145825E-03
           6.8558528649037391E-04    3.7940100454482764E-04    1.0546636553471402E-03
           1.2899360670398459E-04    1.1106803603316532E-04    1.1994798277259401E-04
           2.4970357440383184E-04   -7.1161487561548968E-04    1.2905617084066194E-03
          -7.8944834913922545E-04   -3.6580046230833338E-04    3.4135177229658052E-04
          -6.8838767688069195E-05   -1.0369498284239014E-04    3.1476816140591900E-04
          -8.2012046147896634E-05   -1.5696848866638099E-04    5.1175461423503570E-05
          -1.3006397561678370E-03   -4.2439327326798437E-04    6.6945482093520186E-04
           2.2999165746311357E-04   -2.1781942443235106E-04   -1.6224474513353994E-04
          -4.4588258655351565E-04    8.2724303898399601E-04    8.2051859978126611E-04
          -3.7518428227420269E-05    2.7845248719830324E-04   -1.2953431873689802E-03
          -1.9169399717210237E-04    3.7486959523506025E-04   -6.9992392669492587E-05
           9.7214328390423461E-04    1.7102071336964344E-05    1.3908836263629452E-04
          -2.2137475272172476E-03   -3.1843396269027311E-04    5.8546214141668221E-04
          -1.1041600877194276E-04    9.8884907036534271E-05    1.7847012480327887E-04
          -4.3223671289071376E-04   -2.0326555856276849E-04    1.2693811996607202E-03
           2.9218609475497605E-04   -5.3018668419818485E-04   -7.8162333054600285E-04
           1.0844601108285750E-04    2.6088180359128599E-04    1.5167688449263322E-04
           6.1067149763614282E-04    4.9994756570385858E-04   -1.4540386520714779E-04
           2.3519481803063711E-04    1.3666702452915229E-04    9.3240281757351663E-04
           9.7745865469099470E-05    8.7412045360165096E-05    5.7124791663801204E-06
           1.3065039188834098E-03    4.5807819179610032E-04    3.4682790493003721E-05
           6.7525659825002851E-05    4.5479579582025168E-04   -1.0414496140493522E-03
           5.1513662528130786E-05   -1.6073161167153301E-04    8.1740915681837795E-05
           7.2568715983851886E-04   -4.0565812723292562E-04   -2.1635588630728171E-04
           5.6294653498474600E-04    1.0902849211262518E-03   -3.7027803577771308E-04
          -2.3526215601781078E-04    1.4131862067789365E-05   -5.5707413712638089E-05
          -9.1006796100763100E-05    1.7694856741335761E-04   -1.0010344156865833E-03
          -7.5597653501292058E-04   -9.8656260004060603E-04   -7.6812896816496376E-04
           1.9411335055698492E-05    1.1176161679606148E-04   -9.1148713094080979E-05
          -1.4034400800140268E-03    7.0841834657071282E-04    7.7150966300379117E-04
          -2.0896131649723572E-04   -1.1956019593571283E-04   -1.5221265634631147E-03
           6.5935860704057191E-05    3.2424613754609005E-05   -1.0698695693429612E-04
          -1.0019835743244835E-03    6.8916365166928235E-04    4.5694085011369588E-04
           3.2716449205559030E-04   -8.1613456751968992E-04   -7.7660856882866985E-04
          -1.8100090108767299E-04   -1.2376049261249411E-04   -3.3336986998905051E-05
           1.6497958373149796E-03    9.4818056825231756E-04   -7.8873221695101975E-04
           9.4340390226842587E-05    3.5969721455104227E-04    1.7734882537414295E-03
           8.4534627298268804E-05   -1.9001750154791868E-04   -1.1469232292283320E-04
           4.0088034049012616E-04   -5.8248282805771553E-05    8.4863638883553554E-04
           2.0347535913698485E-04   -1.0840058043201810E-04   -9.9458107137586184E-04
          -3.8990732590880645E-06   -2.4364648749471718E-05    3.0696113151596871E-04
           9.9833561275889759E-04   -4.9592275350638954E-04   -4.6238838784203290E-04