 # Version information for this restart file 
 # current date 2022-01-03 14:12:36.213
 # current working dir /user/pubo1141/simulations/aiida_tests/cp2k_8.1/md_nvt_low
 # Program compiled at                             Thu May 27 13:34:22 CEST 2021
 # Program compiled on                                                   hpcl001
 # Program compiled for                                            carl-mkl-ompi
 # Source code revision number                                       git:0b61f2f
 &GLOBAL
   PRINT_LEVEL  LOW
   PROJECT_NAME aiida
   RUN_TYPE  MD
 &END GLOBAL
 &MOTION
   &MD
     ENSEMBLE  NVT
     STEPS  5
     TIMESTEP     4.9999999999999994E-01
     STEP_START_VAL  5
     TIME_START_VAL     2.4999999999999996E+00
     ECONS_START_VAL    -1.1028095256883862E+03
     TEMPERATURE     3.0000000000000000E+02
     &THERMOSTAT
       TYPE  NOSE
       REGION  MASSIVE
     &END THERMOSTAT
     &AVERAGES  T
       &RESTART_AVERAGES
         ITIMES_START  1
         AVECPU     4.7249695523828265E+01
         AVEHUGONIOT     0.0000000000000000E+00
         AVETEMP_BARO     0.0000000000000000E+00
         AVEPOT    -1.1033662327812258E+03
         AVEKIN     2.8308815512463381E-01
         AVETEMP     3.1038910593741400E+02
         AVEKIN_QM     0.0000000000000000E+00
         AVETEMP_QM     0.0000000000000000E+00
         AVEVOL     1.2928894580884409E+04
         AVECELL_A     2.3470398570439684E+01
         AVECELL_B     2.3470398570439684E+01
         AVECELL_C     2.3470398570439684E+01
         AVEALPHA     9.0000000000000000E+01
         AVEBETA     9.0000000000000000E+01
         AVEGAMMA     9.0000000000000000E+01
         AVE_ECONS    -9.0405790285093809E-02
         AVE_PRESS     0.0000000000000000E+00
         AVE_PXX     0.0000000000000000E+00
       &END RESTART_AVERAGES
     &END AVERAGES
   &END MD
 &END MOTION
 &FORCE_EVAL
   METHOD  QS
   &DFT
     BASIS_SET_FILE_NAME BASIS_MOLOPT
     POTENTIAL_FILE_NAME GTH_POTENTIALS
     MULTIPLICITY  1
     CHARGE  0
     &SCF
       MAX_SCF  30
       EPS_SCF     1.0000000000000001E-05
       SCF_GUESS  ATOMIC
       &OT  T
         MINIMIZER  DIIS
         PRECONDITIONER  FULL_SINGLE_INVERSE
       &END OT
       &OUTER_SCF  T
         EPS_SCF     9.9999999999999995E-07
         MAX_SCF  5
       &END OUTER_SCF
       &PRINT
         &RESTART  OFF
         &END RESTART
       &END PRINT
     &END SCF
     &QS
       EPS_DEFAULT     1.0000000000000000E-08
       EXTRAPOLATION  ASPC
       METHOD  GPW
     &END QS
     &MGRID
       CUTOFF     4.0000000000000000E+02
     &END MGRID
     &XC
       DENSITY_CUTOFF     1.0000000000000000E-10
       GRADIENT_CUTOFF     1.0000000000000000E-10
       TAU_CUTOFF     1.0000000000000000E-10
       &XC_FUNCTIONAL  NO_SHORTCUT
         &PBE  T
         &END PBE
       &END XC_FUNCTIONAL
       &VDW_POTENTIAL
         POTENTIAL_TYPE  PAIR_POTENTIAL
         &PAIR_POTENTIAL
           R_CUTOFF     1.6000000000000000E+01
           TYPE  DFTD3
           PARAMETER_FILE_NAME dftd3.dat
           REFERENCE_FUNCTIONAL PBE
         &END PAIR_POTENTIAL
       &END VDW_POTENTIAL
     &END XC
     &POISSON
       PERIODIC  XYZ
     &END POISSON
   &END DFT
   &SUBSYS
     &CELL
       A     1.2420000000000000E+01    0.0000000000000000E+00    0.0000000000000000E+00
       B     0.0000000000000000E+00    1.2420000000000000E+01    0.0000000000000000E+00
       C     0.0000000000000000E+00    0.0000000000000000E+00    1.2420000000000000E+01
       MULTIPLE_UNIT_CELL  1 1 1
     &END CELL
     &COORD
O    3.8476523449570457E+00   -4.7572858050839715E+00    5.5115245845274572E+00
H    4.1497688750466377E+00   -5.5056491468484383E+00    6.0683847935871338E+00
H    3.0574142856890894E+00   -4.2852793714456832E+00    5.9390440531957687E+00
O   -3.5402253350684596E+00    1.7506229286990602E+00    4.2923541522524467E+00
H   -3.3923308488365245E+00    7.6122192084091744E-01    4.1612148599187302E+00
H   -3.6132926516188317E+00    1.8605078693836894E+00    5.2190171694537870E+00
O    4.5456227369048792E+00    2.9364709654492827E+00   -7.1008090148461775E+00
H    3.6179751341720210E+00    3.2240598201866186E+00   -6.7885720683932975E+00
H    4.5034151434952125E+00    2.8172408121255277E+00   -8.0457501673143614E+00
O   -2.5785360701602160E+00   -1.3225011917193535E-01   -3.4094899453087439E+00
H   -2.0377144059978387E+00    4.1032370952122882E-01   -2.8178529424964189E+00
H   -1.9113812227585090E+00   -6.4750225922130278E-01   -3.9657431797305001E+00
O   -3.7612751781646714E+00   -7.7162625969844774E+00    5.6315818858479627E+00
H   -4.6675601840472822E+00   -7.4669052285251594E+00    5.9330779566098348E+00
H   -3.8356875331248088E+00   -7.5737707145211211E+00    4.5981656360933929E+00
O   -6.7019957337360490E+00   -8.2861220554865056E-02    2.3103323677973937E+00
H   -6.0574628097447194E+00   -4.0113626353041298E-01    2.9842795718338406E+00
H   -6.2720675019408887E+00    7.6721682191592866E-01    1.9953644491113307E+00
O    4.0181391743712789E+00   -5.5759277303593953E+00   -4.2079929936789889E-01
H    3.3115878232581322E+00   -5.6289378425867262E+00    2.7504291294834715E-01
H    3.8885985801956222E+00   -4.6884479194353847E+00   -8.3151281881584282E-01
O   -2.6708576949909073E+00   -3.0839192551300885E+00   -1.2293555948736723E+00
H   -3.2784731009348222E+00   -2.4928517043320877E+00   -1.7005493999628953E+00
H   -2.1136787674197342E+00   -2.5088166924488138E+00   -6.1932268451514427E-01
O    5.4469281151469096E+00   -3.1793901877087563E+00    3.0960552196849203E+00
H    4.6376570933964656E+00   -3.2479162718422265E+00    3.6944993140115518E+00
H    5.2230696006489339E+00   -2.9639622866542807E+00    2.1363158953301937E+00
O    2.0184499198940431E+00    3.8060650714846278E+00   -6.6620655262875887E+00
H    1.3770270881946263E+00    3.0724805897736420E+00   -6.8197760192857242E+00
H    1.8113229813229821E+00    4.0875976326934165E+00   -5.7405793843037083E+00
O    4.0538238544565681E+00   -3.8994257686877813E+00   -3.0621926940400814E+00
H    3.2831921474224686E+00   -3.7755340300300868E+00   -3.6390884461174688E+00
H    4.3321435234710925E+00   -2.9743342065725842E+00   -2.8927125128399189E+00
O    1.9911703732456902E+00   -1.8367531062048326E+00    1.0233832764696424E+00
H    1.6415785666694531E+00   -2.4879456056887044E+00    1.6750237694150500E+00
H    1.6430063990315700E+00   -1.9673461191292199E+00    1.1436041735467878E-01
O    7.2383887176274697E-01   -5.7477507718415852E+00   -5.0089689076247730E+00
H    1.4318282157472255E+00   -6.3710100862529231E+00   -4.8600287924978263E+00
H    4.2543137375774681E-01   -5.7398823571426938E+00   -5.9181545028360469E+00
O   -7.5227084346101369E+00   -8.6742981035856719E+00   -3.2517552226749165E+00
H   -7.8286284817215881E+00   -9.6036261441208435E+00   -3.1089855912072344E+00
H   -7.1226807184418757E+00   -8.4938123683085749E+00   -2.3915267525347375E+00
O    2.9967200156559266E+00   -1.6392410905018955E+00    5.1746010777224836E+00
H    3.8342030212751306E+00   -1.7514749930662592E+00    5.6695194537923541E+00
H    3.2093996997923835E+00   -8.8513093132522602E-01    4.6032000637675470E+00
O   -9.3981066674306224E-02    1.8627605856179217E+00   -6.7010856623757018E+00
H    2.4851356678245734E-01    1.0300354674734893E+00   -6.3180135358249565E+00
H   -7.9108504512268776E-03    1.7256021883189980E+00   -7.6424884312106238E+00
O    1.3949219369907817E+00   -3.0865100270446018E+00    3.6637438783936664E+00
H    2.0118709927544614E+00   -2.6436372138266822E+00    4.2977354609648017E+00
H    1.0859631661237039E+00   -3.9138054749474058E+00    3.9689922570583822E+00
O   -2.3282066405595279E+00    2.7977935219202021E+00    2.2332326540693201E+00
H   -1.6086213624537853E+00    2.1098694689162607E+00    2.1098585646474866E+00
H   -2.7965698486218495E+00    2.5965913802416165E+00    3.0832178048294963E+00
O    8.8204856087088346E-01   -6.5407493951289186E-01   -5.6103944774677323E+00
H    1.7808054571720879E+00   -8.1324037281488371E-01   -6.0954143079315708E+00
H    1.1758966985809141E+00   -2.4051657644855720E-01   -4.7397617571595108E+00
O   -1.1659508185836298E+00   -7.1870873916100031E-01    2.2045955911836221E-01
H   -1.0883294195555344E+00    2.3040193607123308E-01   -6.1035711710593819E-02
H   -9.9175182802150419E-01   -7.6019376872769451E-01    1.1521247065044173E+00
O   -3.8848294046915650E+00   -9.0050432615243654E+00   -3.1129051416291729E+00
H   -4.4951589798980258E+00   -8.2402528898186436E+00   -3.1462578685697475E+00
H   -2.9514136351877158E+00   -8.6631350126532531E+00   -3.1310574144614174E+00
O    4.9788070674496145E+00    4.5789816263372778E+00    2.1732999987436896E+00
H    4.5821871687594111E+00    4.0917957453971816E+00    1.4196794100544652E+00
H    4.1990040773304500E+00    4.9855029389955847E+00    2.6443519348732663E+00
O    4.2125979079902081E+00    1.0320643193078891E+00   -3.2075179558690894E+00
H    4.6109829830419615E+00    9.2892321051860194E-01   -4.1218526723301867E+00
H    4.4390493108605247E+00    1.9775575957034738E-01   -2.6646120146674148E+00
O   -5.2049429059744075E+00   -6.3435776378949784E+00   -2.6938083039228564E+00
H   -5.4127114218263781E+00   -6.0011639282017271E+00   -1.7785273078978139E+00
H   -5.9895092842606665E+00   -6.0787615532549557E+00   -3.2115273884014002E+00
O    4.8297826545057054E+00   -2.1460301274330265E+00    6.9148834614078747E-01
H    5.1654009966324912E+00   -1.3040323033120242E+00    1.1898607007939079E+00
H    3.8455341599818413E+00   -2.0002332379073184E+00    8.3128074694189558E-01
O    2.1233117341287802E+00    9.4619723053582339E-01    1.6988741636283073E+00
H    2.8186775415154415E+00    1.5138894727197669E+00    1.3030530792811159E+00
H    2.3787825058189997E+00    7.7819659130647784E-02    1.3043882201252821E+00
O   -5.7551611465470334E+00   -5.0952218493452941E+00   -3.6631930630255299E-01
H   -6.6280136223405233E+00   -5.4636281708205621E+00   -2.4921708320045252E-01
H   -5.9110110075797966E+00   -4.1636564688781252E+00   -6.3274687694891263E-01
O   -4.8451714031716939E+00    4.6295334585666605E+00    2.6237514891608229E+00
H   -5.8338666198481102E+00    4.7080363053694976E+00    2.3479137323583252E+00
H   -4.7458081160502656E+00    3.7721490593574436E+00    2.2497939500699222E+00
O    5.4878855705818017E+00    8.5034780893510242E-01   -5.6028979824572387E+00
H    6.3743017184711608E+00    1.1349259102087768E+00   -5.4292715072625679E+00
H    5.0537462814947629E+00    1.4711340892447822E+00   -6.2287574403134531E+00
O    7.4203322552735929E-01   -1.9094702528728098E+00   -1.2632027025492651E+00
H    4.4137034539481079E-01   -2.7336832765823162E+00   -1.7944160149765245E+00
H   -4.2908696079471904E-02   -1.6733857432078878E+00   -7.3041999635126420E-01
O    3.8980938339558384E+00    2.6153010043281659E+00    9.9147125366635155E-02
H    4.6403480981778333E+00    2.4145249094266568E+00   -4.7663747629383751E-01
H    3.2891603467417885E+00    3.2296918292348771E+00   -4.2733128908350576E-01
O   -1.0877513901562372E+00   -1.3777923395916076E+00    2.9398761220063228E+00
H   -3.4537839568492862E-01   -2.0215520765893449E+00    3.1568884354793059E+00
H   -1.8639888134400735E+00   -1.9985169512900631E+00    3.1409485824666850E+00
O    2.0638896927987891E+00   -5.6291011757085867E+00    1.3589710299735123E+00
H    1.2241783584131625E+00   -6.1510749855615332E+00    1.2679508744038483E+00
H    2.3326177588319426E+00   -5.9010392283196254E+00    2.2929757835968196E+00
O   -6.3569086027816468E-01   -3.8243248754036334E+00   -2.8366279595407007E+00
H   -1.5662129729812044E+00   -3.7833270203506708E+00   -2.5291166488599885E+00
H   -4.9298200742203491E-01   -4.5871868985511428E+00   -3.4240910833449343E+00
O   -5.2851512109669212E+00    2.0768708245478780E+00    1.4481115858431970E+00
H   -4.4422170889682704E+00    1.9152768632759853E+00    1.8936235989149537E+00
H   -5.1150416755793771E+00    1.9171778267924162E+00    4.0737244013753054E-01
O    1.9669863117946134E+00   -3.4196229492762411E+00   -5.2669059658918718E+00
H    1.3750718858907913E+00   -4.1805080769640259E+00   -5.0353539264655209E+00
H    1.2819814803749785E+00   -2.7503526181906484E+00   -5.5587757658794867E+00
O   -1.1889920589633010E+00    3.9307389053071597E+00   -3.3708834015967661E+00
H   -1.1787154565301714E+00    3.9419830076554070E+00   -4.3411649698330441E+00
H   -7.1845294145303495E-01    4.6814274379308056E+00   -2.9586563662148833E+00
O   -5.4351472245047532E+00   -5.0029878701923165E+00    4.2721509154916006E+00
H   -6.1341561959028876E+00   -4.5172180492450833E+00    3.7438348610109515E+00
H   -4.8014611150820077E+00   -5.3898970282243024E+00    3.6908832263973723E+00
O    2.9745722732030004E+00    5.8010080878297456E+00    3.5990243212730428E+00
H    3.3436117805169694E+00    6.5046387713712894E+00    4.1958504008000919E+00
H    2.4290421504519792E+00    5.1852393010600126E+00    4.1434139300302153E+00
O   -4.0472619461952952E+00    1.5479345625669092E+00   -5.0681202895163215E+00
H   -3.5802922676944084E+00    7.9842284342188563E-01   -4.5877340538628379E+00
H   -4.0205428252835436E+00    2.3137535160455740E+00   -4.4776027916633394E+00
O    3.4766154248638426E+00    5.9361944393508659E-01    4.0095344644104243E+00
H    2.8661401107298730E+00    5.7444569001122270E-01    3.2024647194268931E+00
H    4.3028271425505356E+00    4.3761810507578475E-01    3.5393745881633056E+00
O   -4.6151927577920615E+00   -1.0200372537611808E+00    3.9979255354638261E+00
H   -5.3499961071482272E+00   -1.2503060327898028E+00    4.6822322626441562E+00
H   -4.1870833766621880E+00   -1.9226608080820176E+00    3.7843979120418592E+00
O   -2.1567122495701885E-01    1.2745000876647268E+00    3.1331105884015815E+00
H    6.7635956277769171E-01    1.3931430519330275E+00    2.7218210449620779E+00
H   -4.1944694327971510E-01    2.8540357909494901E-01    3.0672267493637464E+00
O   -1.9871618532263393E+00    5.0471641083507066E+00    5.9072481891129625E-01
H   -2.2950991526758195E+00    4.1788806370792475E+00    9.8617600529464233E-01
H   -2.6184585947802246E+00    5.7603568381610790E+00    7.7989576221772550E-01
O   -1.2975881417306872E+00   -1.8959862203527615E+00   -4.9488676293755267E+00
H   -8.4447962645441466E-01   -2.4260000461612625E+00   -4.2026563070401650E+00
H   -5.1753501843375616E-01   -1.3190541366490105E+00   -5.4058824529297009E+00
O   -5.1474696587115458E+00    1.8163602675674313E+00   -1.2949290984396016E+00
H   -4.6896927580946945E+00    2.4822427272934990E+00   -1.8862938400148030E+00
H   -5.3630314051646835E+00    1.1054334265095567E+00   -1.9187615885832241E+00
O   -7.3725434742879523E+00   -1.2310127856406932E+00   -1.9463011288180105E+00
H   -6.4119126325068798E+00   -1.1004746924921984E+00   -2.1520263421252919E+00
H   -7.4688554267794149E+00   -1.5237200531109150E+00   -9.9634737929822859E-01
O   -4.6255626947359851E-01    1.4130274566735326E+00   -1.7108565841573993E+00
H   -7.8643554080036093E-01    2.1962037671321708E+00   -2.1750997913423293E+00
H    2.6310886007775103E-01    9.6355335386834662E-01   -2.2298453468219637E+00
O   -3.7631700678173730E-02   -6.5074356495994197E+00   -1.0950836222099014E+00
H    9.8611690372162539E-03   -5.5508987336300031E+00   -1.1092574073611767E+00
H   -8.2215615804536324E-01   -6.7760983077920285E+00   -4.1315389335005903E-01
O    5.7092953168076317E+00   -1.6930826194700046E+00    6.0203052268440729E+00
H    6.0008777991717350E+00   -2.4972487317506187E+00    6.4746994926581118E+00
H    5.7439407743610698E+00   -9.4493709210763399E-01    6.6246631099002888E+00
O   -2.6041076458987549E+00   -5.7826158332352637E+00   -4.2098624993982163E+00
H   -2.6171910552276514E+00   -6.6894846050515291E+00   -4.5501195654889859E+00
H   -3.5116730731288825E+00   -5.4989318627693606E+00   -3.8835192493213886E+00
O   -4.9429946891799377E+00   -1.4023936323826882E+00   -3.2393776540056591E+00
H   -4.9684997748230471E+00   -2.2666220860033235E+00   -3.7719727180942360E+00
H   -4.0141724213104322E+00   -1.0704405747990533E+00   -3.2380430366836528E+00
O    2.2895911045899409E+00   -8.0798070753155660E+00   -1.2247156520412972E+00
H    1.2856438639152010E+00   -8.1069476688888109E+00   -1.1243076406328434E+00
H    2.5362593229358810E+00   -7.1181913378789252E+00   -1.1713415255753532E+00
O    6.7772676934842675E+00   -3.8953014887073474E+00   -5.3356045359032143E+00
H    7.6152664451632566E+00   -4.1737054778427947E+00   -5.8350922533495586E+00
H    6.0291766242350011E+00   -4.4270201087655225E+00   -5.6850555948126509E+00
O   -3.4356171039259714E-01    4.9716797630947456E+00    2.9576523493804974E+00
H   -6.6110926145608273E-01    4.2334406802270461E+00    3.4704273464959647E+00
H   -7.2136220206298085E-01    4.8440026843339581E+00    2.0571830811296028E+00
O   -2.8150516805287302E+00   -3.9995836216161256E+00    6.2244319342278018E+00
H   -2.4306786593801561E+00   -4.5870032088842718E+00    6.9104099631806672E+00
H   -2.4092687081264326E+00   -3.1557886888084470E+00    6.3980625027961091E+00
O   -2.7965980948775968E+00   -3.4832106743804414E+00    3.4713732603641638E+00
H   -3.0913923244758315E+00   -3.8818847039104680E+00    4.2789501870483031E+00
H   -3.2323225283814772E+00   -4.0479081706502305E+00    2.8242419017607490E+00
O    2.4871837245327870E+00    4.6840691935262857E+00   -3.9634428257599223E+00
H    3.3977920886867081E+00    4.5378401690628039E+00   -3.6105312751832401E+00
H    1.9752092419755654E+00    4.5646399046260990E+00   -3.0919996844416553E+00
O    1.6536854515617259E+00    5.4820618014490834E-02   -3.1023547997480478E+00
H    1.6049118720593749E+00   -5.9146989847129205E-01   -2.3646874318393336E+00
H    2.4635680801736046E+00    5.6108543631791696E-01   -3.0510933207563480E+00
O   -1.2128596315819085E+00   -8.1736108386126389E+00   -6.3553779594308253E+00
H   -8.9701002960672549E-01   -9.0549708078445921E+00   -6.5665804200111983E+00
H   -2.1546148637622822E+00   -8.0407590797834612E+00   -6.5301191355941688E+00
O   -4.6762851948538758E-01    8.3701641440729038E+00    6.0210616779601045E-01
H    3.3708755245952110E-01    8.2868070139897867E+00    1.1589118664265134E+00
H   -1.2126860260781440E+00    8.0371558675147057E+00    1.1271839674367534E+00
O    5.8900381761713625E+00   -6.7862394276443609E+00   -6.6126980627013294E+00
H    5.4363292295434631E+00   -7.5720762871661895E+00   -6.9478539003222171E+00
H    6.1310034891222145E+00   -6.1526391986164253E+00   -7.3565409001071789E+00
O   -3.5556832836196955E-01   -5.2572702952809331E+00    4.6698016653860348E+00
H   -3.7629095652460620E-01   -6.0985178307570473E+00    4.0714635577627076E+00
H   -1.2809813191994877E+00   -5.1437750820949706E+00    4.9671452953012363E+00
O   -3.8179546017830819E+00   -5.5296910459424273E+00    1.7936571244063069E+00
H   -4.0725918834717012E+00   -6.4204998325704716E+00    2.1294647572842180E+00
H   -4.3943224119085125E+00   -5.2907483180561519E+00    1.0079043582546998E+00
     &END COORD
     &VELOCITY
          -2.0012457712448824E-04   -7.9571378319334276E-05    2.9984680828915996E-05
          -1.2494326912766999E-03    1.1976358492795990E-03    1.2820396974129332E-03
          -4.4581629913848577E-04    4.0460429825300858E-04    6.8472233715031593E-04
           1.0549626125062104E-04    7.3251624078032125E-05    2.4124410731640856E-05
          -8.3822967140204465E-04   -1.2966589415704054E-03    3.2445663631159802E-04
          -1.9014667384458100E-04   -1.4497319833488083E-03    2.8895298386324855E-05
          -4.2753793585112860E-04    6.2048125746801155E-05    4.5688621903430460E-05
          -9.3824598421878545E-04   -2.3104760137802524E-04    2.9482832751522795E-05
          -1.0942714407676664E-06    4.4090542283134601E-04   -7.4329891284267741E-04
          -1.0360820733639992E-04   -5.0481769401792913E-04    6.7921451399229751E-05
           4.2370666798419176E-04    4.1257605661421554E-04    8.7174139320925854E-04
          -6.7007680068835299E-04   -7.8640944270344060E-04   -7.7067966684015072E-04
           1.8778953027541506E-05   -8.2502210952886470E-05   -1.0697408281514372E-05
          -7.2986779279460062E-04   -8.5038040261902642E-04   -1.0345005587392344E-03
           2.0557612458706119E-04    8.6712430125732685E-04   -4.0570711131835641E-05
           2.0269724881890266E-04   -1.2591047107114191E-04   -1.1454838594757453E-04
          -3.2505219900157590E-04    9.2265653149311894E-04   -7.5986178499567038E-04
          -2.3979482916337627E-04    5.8319215315420737E-04    6.3751357015299581E-04
           1.4167735835227984E-04    8.5198169300166679E-05   -1.5080597830278725E-04
          -5.0020291846251854E-04   -2.0188259888085996E-04   -3.8674864928671106E-04
          -4.2863288677229294E-04    1.4758026323188293E-03   -2.7018917688908405E-04
          -3.5182620898838918E-05   -5.2582012812795271E-05   -7.9424172303977419E-05
          -4.3295584940011421E-04   -7.7297278965766600E-04    9.5087227751592437E-04
           1.3198930820421916E-03    1.7779016945774478E-03   -8.5954129901315670E-04
          -1.8825441256891095E-04   -2.0092650417030780E-04   -7.4859477720111620E-05
          -8.4524694295677247E-04    9.8994922670835657E-05    9.4961113327843023E-04
          -8.7648124133780187E-04    1.4698840724157035E-03    5.6799906675184810E-04
           1.9318639542672706E-04    7.3837554488579920E-05   -3.2883599375859682E-04
          -2.0727729023397351E-04   -6.5245698911705938E-05   -2.2077806430714371E-04
          -2.6692541353039314E-04    3.7201678378640825E-04   -5.1265235452577186E-04
          -1.6997503659442053E-04   -1.2601929953774460E-04   -7.0846008300816474E-05
           1.3284692510411561E-03   -1.1566855222466294E-03    1.2963541455554008E-03
           1.8358417317479399E-04    5.5717266203441566E-04    1.8297220106325560E-03
           2.8854906012291585E-04    1.5942968516357770E-04    2.3883452975664415E-05
           1.4641944034359429E-03   -2.3219002347151633E-04    3.9384548615844183E-04
           1.8791161586184595E-04   -1.2764448551119527E-03    9.4096533122521066E-04
          -2.2278965238504750E-04   -2.3363024497630818E-05    6.9919417658429088E-05
          -1.8711046744447437E-04   -1.4133671376249009E-03   -6.8892105078428661E-04
          -6.1361323356601185E-04   -8.3018614212938336E-04   -2.7898898822768087E-04
          -1.2103101466247291E-04    5.0136547235988020E-05   -2.5304864453762203E-04
           8.0833887502697918E-04   -1.4567722240419015E-04   -7.8573167136072365E-04
           3.9169095423203918E-04    1.8949800229221281E-03   -6.4986933575759108E-04
          -2.5356535920412172E-04   -3.8567965555600682E-04    1.1959049949298038E-04
          -1.6054445759100771E-04    8.4415838961727043E-04   -3.5436954308954382E-04
           9.5749286765032875E-04   -3.8734843031411922E-04   -5.2143405988167165E-04
           1.5836997963404140E-05    2.9523539023304634E-05   -2.2762706719201676E-04
           3.3713582175903161E-04   -1.0214867359718334E-03    3.0843748080058533E-04
           6.6848039721477512E-04   -5.5696762203255546E-04   -9.7655063770853265E-04
           2.7581393130416543E-04   -2.3954433423336126E-05    9.9829319619044524E-06
           2.1507978189227732E-04    6.0158302101490102E-04   -2.0309802615317367E-04
          -6.2815201554767316E-04    6.6585856446470208E-05    2.9269218672920490E-04
           1.5161557403674703E-05   -1.4235920621523591E-04   -7.3358069965505962E-05
           2.9174676130574457E-05   -1.2451239915089952E-04   -1.0954389365195310E-03
          -6.4081887137041552E-04    6.7521798796971351E-05    2.4767619726032391E-04
           1.9368049307271862E-04    1.5527226759329577E-04   -2.0611599133593900E-04
           5.6212934508040769E-04   -1.8580641157292848E-05    2.9051806435495016E-04
          -4.5662686315318159E-04   -2.8489762092978973E-04    3.8613082686091393E-04
           3.7219316506156407E-04   -1.4784597716275542E-05   -4.8709689120374704E-04
           8.7855513279472470E-04   -5.7150845509348306E-04    2.8094706820485960E-04
          -1.0255424660590073E-03    3.3142812866973056E-04   -9.2119866948743267E-05
           3.5140057238536955E-05    1.1592927264908027E-04    3.4254716574366175E-04
          -6.0730937614132754E-05    1.3101058555637507E-03    1.3054244301555474E-03
          -7.1455406609601609E-04    1.2949623539260126E-03   -4.5191230725600343E-05
          -1.2443961593540003E-05    3.9489497657031297E-04    2.3540490481072641E-04
           1.5807396013789115E-04    1.5255011939687275E-04   -5.6022801045771929E-04
          -4.8180592017359067E-06    1.4884287331330954E-03   -4.8909186297438725E-04
           8.1484251228358518E-05    3.7523203177710272E-05    1.4211934071410912E-04
          -4.6294118383654856E-05    1.3499501394703009E-03   -1.4359121912944437E-03
           3.6949290660421745E-04    3.7037136337461770E-04    1.1894572821681737E-03
           1.1723794725818994E-04    2.5595055883973963E-05   -2.5822562056462860E-04
          -5.1149166338543479E-04    1.7717807972364111E-03    1.3155325530993147E-04
          -5.5915549480079095E-05    2.7700843168963600E-04   -1.2984843823753605E-03
           4.4386936310388751E-05    8.7063179975966371E-05   -8.4051975116264792E-05
           1.5854446272930742E-04    1.4196030955423778E-03    4.1423559077630108E-04
          -8.2568262858973398E-04    1.3066522899441679E-05    7.3550083364492440E-04
           2.8249492069581039E-04    9.2696998733138720E-05    4.1579831376471474E-05
           1.1918530574604915E-03    5.2545375675035406E-04    6.4107147578761883E-04
           7.7831368080130692E-04   -4.0489896401297795E-04    2.1577512948299133E-04
           1.0325188633581582E-04   -8.3728801959469565E-07   -9.3386763044734714E-05
           2.6655655317363704E-04   -5.8591436858049380E-04    1.4192059672669610E-04
           5.0056872195100208E-04    1.9022373351923011E-04    1.1291542687165675E-03
           5.7710316645374791E-05   -8.1844361356529427E-05   -1.5849162918319285E-04
          -4.0579703918596567E-05   -1.7009555938983869E-04    1.1201631343681381E-04
           7.0935852562495057E-04    1.6057848093646756E-03   -8.1897947343228934E-05
          -5.2160952407200544E-04   -7.1201826658692398E-05   -1.8851119885222848E-04
           5.4257466146628830E-04   -6.1295098108276940E-04   -1.4755575385199393E-03
           6.8558528648813330E-04    3.7940100454354389E-04    1.0546636553525866E-03
           1.2899360670380584E-04    1.1106803603321730E-04    1.1994798277269140E-04
           2.4970357440375692E-04   -7.1161487561549142E-04    1.2905617084066933E-03
          -7.8944834913931880E-04   -3.6580046230806439E-04    3.4135177229689559E-04
          -6.8838767690494081E-05   -1.0369498284493002E-04    3.1476816140891330E-04
          -8.2012046151519171E-05   -1.5696848866475496E-04    5.1175461423810826E-05
          -1.3006397561691242E-03   -4.2439327326788967E-04    6.6945482093745494E-04
           2.2999165746294547E-04   -2.1781942443227566E-04   -1.6224474513322471E-04
          -4.4588258655311607E-04    8.2724303898412015E-04    8.2051859978113232E-04
          -3.7518428226072958E-05    2.7845248719887163E-04   -1.2953431873686768E-03
          -1.9169399717230100E-04    3.7486959523480205E-04   -6.9992392670131210E-05
           9.7214328390419146E-04    1.7102071337428240E-05    1.3908836263607687E-04
          -2.2137475272177853E-03   -3.1843396269124255E-04    5.8546214141612807E-04
          -1.1041600877151091E-04    9.8884907036602603E-05    1.7847012480327556E-04
          -4.3223671288986380E-04   -2.0326555856333401E-04    1.2693811996602356E-03
           2.9218609475515630E-04   -5.3018668419835681E-04   -7.8162333054595406E-04
           1.0844601108269277E-04    2.6088180358914913E-04    1.5167688449025554E-04
           6.1067149763931368E-04    4.9994756570341775E-04   -1.4540386521051031E-04
           2.3519481803056417E-04    1.3666702453465738E-04    9.3240281756991762E-04
           9.7745865468467827E-05    8.7412045359843143E-05    5.7124791662711242E-06
           1.3065039188832591E-03    4.5807819179562490E-04    3.4682790493130309E-05
           6.7525659824997742E-05    4.5479579582063614E-04   -1.0414496140490213E-03
           5.1513662530035187E-05   -1.6073161167138675E-04    8.1740915682120542E-05
           7.2568715983956848E-04   -4.0565812723325294E-04   -2.1635588630755770E-04
           5.6294653498527292E-04    1.0902849211269475E-03   -3.7027803577724828E-04
          -2.3526215601754231E-04    1.4131862067443732E-05   -5.5707413719613785E-05
          -9.1006796102396017E-05    1.7694856742022668E-04   -1.0010344156693954E-03
          -7.5597653501151372E-04   -9.8656260003446793E-04   -7.6812896816594420E-04
           1.9411335055234935E-05    1.1176161679634909E-04   -9.1148713093813262E-05
          -1.4034400800144583E-03    7.0841834657020823E-04    7.7150966300489944E-04
          -2.0896131649740383E-04   -1.1956019593589552E-04   -1.5221265634630719E-03
           6.5935860704142288E-05    3.2424613754974523E-05   -1.0698695693629345E-04
          -1.0019835743244161E-03    6.8916365167104939E-04    4.5694085011348977E-04
           3.2716449205405799E-04   -8.1613456751862881E-04   -7.7660856882818727E-04
          -1.8100090109053366E-04   -1.2376049261076340E-04   -3.3336986998111700E-05
           1.6497958373146489E-03    9.4818056825457650E-04   -7.8873221695127465E-04
           9.4340390224819710E-05    3.5969721455930486E-04    1.7734882537415934E-03
           8.4534627298657409E-05   -1.9001750154116015E-04   -1.1469232292011581E-04
           4.0088034049342376E-04   -5.8248282801729099E-05    8.4863638883223415E-04
           2.0347535913525474E-04   -1.0840058043117660E-04   -9.9458107137465968E-04
          -3.8990732586624668E-06   -2.4364648749458064E-05    3.0696113151605251E-04
           9.9833561275853590E-04   -4.9592275350634921E-04   -4.6238838784206705E-04