!!! Generated by AiiDA !!!
&FORCE_EVAL
   &DFT
      BASIS_SET_FILE_NAME BASIS_MOLOPT
      &MGRID
         CUTOFF 280
         NGRIDS 4
         REL_CUTOFF 30
      &END MGRID
      &POISSON
         PERIODIC none
         PSOLVER MT
      &END POISSON
      POTENTIAL_FILE_NAME GTH_POTENTIALS
      &QS
         EPS_DEFAULT 1e-12
         EXTRAPOLATION_ORDER 3
         WF_INTERPOLATION ps
      &END QS
      &XC
         &XC_FUNCTIONAL PBE
         &END XC_FUNCTIONAL
      &END XC
   &END DFT
   METHOD Quickstep
   &SUBSYS
      &CELL
         A 4.0             0.0             0.0            
         B 0.0             4.0             0.0            
         C 0.0             0.0             4.737166       
         PERIODIC none
      &END CELL
      &KIND O
         BASIS_SET DZVP-MOLOPT-SR-GTH
         POTENTIAL GTH-PBE-q6
      &END KIND
      &KIND H
         BASIS_SET DZVP-MOLOPT-SR-GTH
         POTENTIAL GTH-PBE-q1
      &END KIND
      &TOPOLOGY
         COORD_FILE_FORMAT XYZ
         COORD_FILE_NAME aiida.coords.xyz
      &END TOPOLOGY
   &END SUBSYS
&END FORCE_EVAL
&GLOBAL
   PROJECT aiida
   RUN_TYPE GEO_OPT
   PRINT_LEVEL LOW
&END GLOBAL
