 # Version information for this restart file 
 # current date 2022-12-15 11:39:09.078
 # current working dir /nfs/data/pubo1141/aiida-test_profile/89/05/873c-b7a6-4b5a-8422-b34460f78a30
 # Program compiled at                              Mon Mar 14 01:18:07 UTC 2022
 # Program compiled on                                              bf5d59bd0cb8
 # Program compiled for                                       Linux-x86-64-conda
 # Source code revision number                                       git:d8d7100
 &GLOBAL
   PREFERRED_DIAG_LIBRARY  SCALAPACK
   EXTENDED_FFT_LENGTHS  T
   PRINT_LEVEL  MEDIUM
   PROJECT_NAME aiida
   RUN_TYPE  CELL_OPT
 &END GLOBAL
 &MOTION
   &CELL_OPT
     OPTIMIZER  CG
     MAX_ITER  25
     MAX_FORCE     9.7000000000000000E-05
     STEP_START_VAL  3
     KEEP_SPACE_GROUP  T
     EPS_SYMMETRY     5.0000000000000001E-03
     TYPE  DIRECT_CELL_OPT
     KEEP_ANGLES  T
     PRESSURE_TOLERANCE     1.0000000000000000E+02
     &CG
       &LINE_SEARCH
         TYPE  2PNT
       &END LINE_SEARCH
     &END CG
     &BFGS
       TRUST_RADIUS     7.5000000000000006E-03
     &END BFGS
   &END CELL_OPT
 &END MOTION
 &FORCE_EVAL
   METHOD  QS
   STRESS_TENSOR  ANALYTICAL
   &DFT
     BASIS_SET_FILE_NAME BASIS_MOLOPT_UCL
     BASIS_SET_FILE_NAME BASIS_MOLOPT
     POTENTIAL_FILE_NAME POTENTIAL_UZH
     &SCF
       MAX_SCF  50
       EPS_SCF     4.9999999999999998E-07
       SCF_GUESS  RESTART
       ADDED_MOS  72
       &SMEAR  F
       &END SMEAR
       &MIXING  T
         METHOD  BROYDEN_MIXING
         ALPHA     5.0000000000000000E-01
         BETA     5.0000000000000000E-01
         NBUFFER  10
       &END MIXING
     &END SCF
     &QS
       EPS_DEFAULT     1.0000000000000000E-14
       EXTRAPOLATION  USE_GUESS
     &END QS
     &MGRID
       NGRIDS  4
       CUTOFF     5.5000000000000000E+02
       REL_CUTOFF     1.0000000000000000E+02
     &END MGRID
     &XC
       DENSITY_CUTOFF     1.0000000000000000E-10
       GRADIENT_CUTOFF     1.0000000000000000E-10
       TAU_CUTOFF     1.0000000000000000E-10
       &XC_FUNCTIONAL  NO_SHORTCUT
         &LIBXC  T
           FUNCTIONAL MGGA_X_R2SCAN
         &END LIBXC
         &LIBXC  T
           FUNCTIONAL MGGA_C_R2SCAN
         &END LIBXC
       &END XC_FUNCTIONAL
     &END XC
     &POISSON
       POISSON_SOLVER  PERIODIC
       PERIODIC  XYZ
     &END POISSON
     &KPOINTS
       SCHEME MONKHORST-PACK 6 4 4
       SYMMETRY  F
       FULL_GRID  F
       EPS_GEO     1.0000000000000000E-08
     &END KPOINTS
   &END DFT
   &SUBSYS
     &CELL
       A     7.0862900844319991E+00    0.0000000000000000E+00    0.0000000000000000E+00
       B     0.0000000000000000E+00    1.1068824562221305E+01    0.0000000000000000E+00
       C     0.0000000000000000E+00    0.0000000000000000E+00    1.0191659377785822E+01
       PERIODIC  XYZ
       MULTIPLE_UNIT_CELL  1 1 1
       &CELL_REF
         A     1.0788679242671703E+01    0.0000000000000000E+00    0.0000000000000000E+00
         B     0.0000000000000000E+00    1.6177243367826001E+01    0.0000000000000000E+00
         C     0.0000000000000000E+00    0.0000000000000000E+00    2.7227980802737502E+01
         PERIODIC  XYZ
         MULTIPLE_UNIT_CELL  1 1 1
       &END CELL_REF
     &END CELL
     &COORD
Te    5.9444096817986392E+00    1.0488259156476703E+01    8.3513530774862907E+00
Te    1.1418799264628701E+00    5.8056594024825481E-01    3.2555233832885597E+00
Te    5.9444096796607591E+00    5.8056593673078993E-01    1.8403054666614436E+00
Te    1.1418799269356539E+00    1.0488259161562263E+01    6.9361351549719128E+00
Te    3.5431448038613227E+00    8.8569551436791905E+00    2.5479144273186272E+00
Te    3.5431448038613227E+00    2.2118699502276913E+00    7.6437441162115380E+00
Te    1.7873431047411543E+00    3.7741559516865628E+00    6.2016093743109568E+00
Te    5.2989465038868993E+00    7.2946691504198284E+00    1.1057796860132569E+00
Te    1.7873431038175711E+00    7.2946691498616243E+00    3.9900491684856911E+00
Te    5.2989465040866559E+00    3.7741559481782923E+00    9.0858788572143219E+00
Te    2.4028118627157626E+00    8.3678673982376228E+00    8.3423177325179179E+00
Te    4.6834777380757497E+00    2.7009577113902283E+00    3.2464880508925824E+00
Te    2.4028118729545089E+00    2.7009577153498854E+00    1.8493408005155041E+00
Te    4.6834777356984585E+00    8.3678673852312144E+00    6.9451704911607237E+00
Te   -2.3835467660877598E-07    5.7767766762856674E+00    2.5479144273186272E+00
Te   -2.3835467660879530E-07    5.2920484229493638E+00    7.6437441162115380E+00
     &END COORD
     &KIND Te
       BASIS_SET TZV2P-MOLOPT-SR-GTH-q6
       POTENTIAL GTH-SCAN-q6
       &POTENTIAL
 2 4 0 0
  0.5730890130313900E+00 1  0.8669096443499029E+01
 3
  0.5760273122438200E+00 3  0.1400888100403950E+01  0.9787785978994100E+00 -0.4863071762406100E+00
 -0.2054553787053430E+01  0.1255636966244200E+01
 -0.9965706859381300E+00
  0.5867606010767600E+00 2  0.7573785644078400E+00  0.3239853597314800E+00
 -0.3925337031465800E+00
  0.8134034824775001E+00 1  0.3236978518277300E+00
         # Potential name:  GTH-SCAN-Q6  for symbol:  TE
         # Potential read from the potential filename: POTENTIAL_UZH
       &END POTENTIAL
     &END KIND
     &TOPOLOGY
       COORD_FILE_NAME aiida.coords.xyz
       COORD_FILE_FORMAT  XYZ
       NUMBER_OF_ATOMS  16
       MULTIPLE_UNIT_CELL  1 1 1
     &END TOPOLOGY
   &END SUBSYS
 &END FORCE_EVAL
