 # Version information for this restart file 
 # current date 2021-05-24 13:43:56.538
 # current working dir /user/pubo1141/simulations/aiida_tests/cp2k_8.1/cell_opt_walltime_medium
 # Program compiled at                             Sun May 23 21:49:02 CEST 2021
 # Program compiled on                                                   hpcl002
 # Program compiled for                                            carl-mkl-impi
 # Source code revision number                                       git:0b61f2f
 &GLOBAL
   PRINT_LEVEL  LOW
   PROJECT_NAME aiida
   RUN_TYPE  CELL_OPT
   WALLTIME 00:03:00
 &END GLOBAL
 &MOTION
   &GEO_OPT
     TYPE  MINIMIZATION
     OPTIMIZER  BFGS
     MAX_ITER  100
     MAX_FORCE     1.9000000000000001E-05
   &END GEO_OPT
   &CELL_OPT
     OPTIMIZER  BFGS
     MAX_ITER  100
     MAX_FORCE     1.9000000000000001E-05
     STEP_START_VAL  5
     TYPE  DIRECT_CELL_OPT
     &BFGS
     &END BFGS
     &PRINT
       &CELL  ON
       &END CELL
     &END PRINT
   &END CELL_OPT
 &END MOTION
 &FORCE_EVAL
   METHOD  QS
   STRESS_TENSOR  ANALYTICAL
   &DFT
     BASIS_SET_FILE_NAME BASIS_MOLOPT
     BASIS_SET_FILE_NAME BASIS_MOLOPT_UCL
     POTENTIAL_FILE_NAME GTH_POTENTIALS
     &SCF
       MAX_SCF  150
       EPS_SCF     9.9999999999999995E-07
       SCF_GUESS  RESTART
       &MIXING  T
         METHOD  BROYDEN_MIXING
         ALPHA     2.9999999999999999E-01
         NBUFFER  20
       &END MIXING
     &END SCF
     &QS
       EPS_DEFAULT     9.9999999999999998E-13
     &END QS
     &MGRID
       NGRIDS  5
       CUTOFF     6.0000000000000000E+02
       REL_CUTOFF     1.0000000000000000E+02
     &END MGRID
     &XC
       DENSITY_CUTOFF     1.0000000000000000E-10
       GRADIENT_CUTOFF     1.0000000000000000E-10
       TAU_CUTOFF     1.0000000000000000E-10
       &XC_FUNCTIONAL  NO_SHORTCUT
         &PBE  T
         &END PBE
       &END XC_FUNCTIONAL
     &END XC
     &POISSON
       PERIODIC  XYZ
     &END POISSON
     &KPOINTS
       SCHEME MONKHORST-PACK 8 8 8
     &END KPOINTS
   &END DFT
   &SUBSYS
     &CELL
       A     6.6089478476960934E+00    0.0000000000000000E+00    0.0000000000000000E+00
       B     3.3059178833488927E+00    5.7598789651024136E+00    0.0000000000000000E+00
       C     3.3059178822383499E+00    1.8916697927605179E+00    5.4404698683340227E+00
       PERIODIC  XYZ
       MULTIPLE_UNIT_CELL  1 1 1
     &END CELL
     &COORD
Cs    3.3052095459050768E+00    1.8342356380222651E+00    1.3041917340716940E+00
Cs    9.9155018652167684E+00    5.6465616811550223E+00    4.0148686717691033E+00
Cs    6.6103140857781417E+00    3.6793060760151621E+00    2.6160911217266061E+00
Sb    2.6630027036635088E-05   -9.8791041172651296E-03   -7.0233529649120470E-03
     &END COORD
     &KIND Cs
       BASIS_SET TZVP-MOLOPT-SR-GTH
       POTENTIAL GTH-PBE-q9
       &POTENTIAL
 3 6
  0.5400000000000000E+00 2  0.3331331676000000E+02 -0.2921216700000000E+01
 4
  0.4618956800000000E+00 2 -0.3322927000000000E+01  0.2455653380000000E+01
 -0.3170234880000000E+01
  0.3663586000000000E+00 2 -0.4950764050000000E+01  0.8403897700000000E+00
 -0.9943625900000000E+00
  0.7615019300000000E+00 1  0.1984072300000000E+00
  0.5970150300000000E+00 1 -0.1550566930000000E+01
         # Potential name:  GTH-PBE-Q9  for symbol:  CS
         # Potential read from the potential filename: GTH_POTENTIALS
       &END POTENTIAL
     &END KIND
     &KIND Sb
       BASIS_SET TZVP-MOLOPT-SR-GTH
       POTENTIAL GTH-PBE-q5
       &POTENTIAL
 2 3
  0.5900000000000000E+00 1  0.7928520840000000E+01
 3
  0.5561363600000000E+00 3  0.1430477900000000E+01  0.1261425990000000E+01 -0.9232335300000000E+00
 -0.3130133400000000E+01  0.2383778720000000E+01
 -0.1892065700000000E+01
  0.6227550700000000E+00 2  0.5614723300000000E+00  0.3048452200000000E+00
 -0.3606977300000000E+00
  0.8894857600000000E+00 1  0.2708686400000000E+00
         # Potential name:  GTH-PBE-Q5  for symbol:  SB
         # Potential read from the potential filename: GTH_POTENTIALS
       &END POTENTIAL
     &END KIND
     &TOPOLOGY
       NUMBER_OF_ATOMS  4
       MULTIPLE_UNIT_CELL  1 1 1
     &END TOPOLOGY
   &END SUBSYS
 &END FORCE_EVAL
