 # Version information for this restart file 
 # current date 2024-11-27 15:12:45.554
 # current working dir /mnt/lustre-grete/usr/u12591/MOFs/DFT_H2O_ads_energies/CAU-23/cell_opt_PBE_cp2k_UZH
 # Program compiled at                                       2024-08-21 23:05:22
 # Program compiled on                                                     c0155
 # Program compiled for                                                   x86_64
 # Source code revision number                                                  
 &GLOBAL
   PRINT_LEVEL MEDIUM
   PROJECT_NAME "CAU-23_CELL_OPT"
   RUN_TYPE CELL_OPT
 &END GLOBAL
 &MOTION
   &CELL_OPT
     OPTIMIZER BFGS
     MAX_FORCE  1.9000000000000001E-004
     STEP_START_VAL 140
     TYPE DIRECT_CELL_OPT
     KEEP_ANGLES T
   &END CELL_OPT
 &END MOTION
 &FORCE_EVAL
   METHOD QS
   STRESS_TENSOR ANALYTICAL
   &DFT
     BASIS_SET_FILE_NAME BASIS_MOLOPT_UZH
     POTENTIAL_FILE_NAME POTENTIAL_UZH
     &SCF
       MAX_SCF 25
       EPS_SCF  9.9999999999999995E-007
       SCF_GUESS RESTART
       &OT T
       &END OT
       &OUTER_SCF T
         EPS_SCF  9.9999999999999995E-007
         MAX_SCF 10
       &END OUTER_SCF
     &END SCF
     &QS
       EPS_DEFAULT  9.9999999999999998E-013
     &END QS
     &MGRID
       NGRIDS 4
       CUTOFF  8.0000000000000000E+002
       REL_CUTOFF  1.5000000000000000E+002
     &END MGRID
     &XC
       DENSITY_CUTOFF  1.0000000000000000E-010
       GRADIENT_CUTOFF  1.0000000000000000E-010
       TAU_CUTOFF  1.0000000000000000E-010
       &XC_FUNCTIONAL NO_SHORTCUT
         &PBE T
         &END PBE
       &END XC_FUNCTIONAL
     &END XC
     &POISSON
       PERIODIC XYZ
     &END POISSON
   &END DFT
   &SUBSYS
     &CELL
       A  1.5686658208522580E+001  0.0000000000000000E+000  0.0000000000000000E+000
       B  0.0000000000000000E+000  2.4628646494061126E+001  0.0000000000000000E+000
       C  0.0000000000000000E+000  0.0000000000000000E+000  1.4247772633749493E+001
       PERIODIC XYZ
       MULTIPLE_UNIT_CELL 1 1 1
     &END CELL
     &COORD
       Al  1.1329250230748391E+000  1.1044326919117076E+001  2.3855776093950749E+000
       O  5.8249867962352020E-001  9.4635708995698735E+000  3.2887445088628424E+000
       Al  1.6907822571674178E+000  8.2025872876714523E+000  4.1919131443011031E+000
       O  3.1028832147592433E-001  7.8653937427264813E+000  5.4445875297898594E+000
       C  1.5204363115751164E+001  6.8798585531461027E+000  5.6387936038101261E+000
       O  1.5279547243398747E+001  5.7288648705381693E+000  5.0905879909084062E+000
       Al  8.4329886002001631E-001  4.9454238749878936E+000  3.8696895402733431E+000
       O  4.5213049714732828E-001  3.2842738027149521E+000  4.5858750676673541E+000
       Al  1.7914912488269250E-001  1.6606580812126126E+000  3.7471066361445065E+000
       O  1.0304104627918866E-007 -5.2024538568357105E-008  2.9383171320487316E+000
       Al  1.5507509401085471E+001  2.2967988361101884E+001  3.7471069317081080E+000
       O  1.3963764345841916E+001  2.2644461187268071E+001  2.5271063579675541E+000
       C  1.3232662460275849E+001  2.1623435072610331E+001  2.2914913169759310E+000
       O  1.3483429180251090E+001  2.0417036717651463E+001  2.6463764242351950E+000
       Al  1.4843359415845459E+001  1.9683222617650173E+001  3.8696897334126348E+000
       O  1.4499195253055888E+001  1.7963180306710800E+001  3.1942725408302195E+000
       Al  1.3995876096732262E+001  1.6426059325234924E+001  4.1919132091104085E+000
       O  1.2709422959060634E+001  1.7449442441551700E+001  5.2356583243937536E+000
       C  1.2603924745359075E+001  1.8690324935785377E+001  5.4942711857082918E+000
       O  1.3437686220122046E+001  1.9601711565728682E+001  5.1592818634276805E+000
       C  1.1427405671247769E+001  1.9164192877439049E+001  6.2487797810957391E+000
       C  1.0970972177631326E+001  2.0476373391858601E+001  6.2953635342653591E+000
       C  9.8225874189743063E+000  2.0615551449752960E+001  7.0952855668732973E+000
       C  9.4345286316988570E+000  1.9412143115444369E+001  7.6677038199898258E+000
       C  8.3256242582812714E+000  1.9194181916479454E+001  8.6089790789459997E+000
       O  7.5330407671719790E+000  2.0179717036776228E+001  8.8031851533169903E+000
       Al  6.1525469449988108E+000  2.0516910497090990E+001  1.0055859634427916E+001
       O  6.6558663979824990E+000  1.8979789565778095E+001  1.1053500372610667E+001
       Al  7.0000303634805974E+000  1.7259747153500825E+001  1.0378083064003997E+001
       O  5.6401000455057808E+000  1.6525933311902637E+001  1.1601396243107722E+001
       C  5.3893330697641213E+000  1.5319534953074934E+001  1.1956281198946980E+001
       O  6.1204347337064613E+000  1.4298508808166387E+001  1.1720665955864160E+001
       Al  7.6641800283286559E+000  1.3974981339966989E+001  1.0500666013915746E+001
       O  6.5074851738594628E+000  1.3268267462865408E+001  9.1533809891482942E+000
       C  6.1129684844352177E+000  1.2101339636019214E+001  8.7976814593447532E+000
       O  6.4919748524494354E+000  1.1000307342885595E+001  9.3136618908116535E+000
       Al  8.0224779669770427E+000  1.0653665087576298E+001  1.0500665644286977E+001
       O  6.8548184242722900E+000  9.8522083371976787E+000  1.1755926605785467E+001
       C  6.7507175493909735E+000  8.6448841891488915E+000  1.2168378175474315E+001
       O  7.3739308971575133E+000  7.6270243873393184E+000  1.1719177596412994E+001
       Al  8.6866279918340279E+000  7.3688993829531109E+000  1.0378082962314695E+001
       O  7.4362182262176182E+000  6.5854584626660619E+000  9.1571844684316499E+000
       C  7.3610340014497293E+000  5.4344647486887503E+000  8.6089789316491654E+000
       O  8.1536173511246375E+000  4.4489295172942196E+000  8.8031850820142896E+000
       Al  9.5341113019323629E+000  4.1117359926845625E+000  1.0055859384160607E+001
       O  8.4258277657170115E+000  2.8507525079815301E+000  1.0959028140480955E+001
       Al  8.9762538527856428E+000  1.2699964879245025E+000  1.1862194982829733E+001
       O  7.6206633810437232E+000  1.6988480644279349E+000  1.3193038476737328E+001
       C  6.4577291149308582E+000  1.2149358744671661E+000  1.3440091222142385E+001
       O  5.9800168749194142E+000  1.3596071107251159E-001  1.2958258539473828E+001
       Al  6.7104044682489299E+000  2.3358650114691301E+001  1.1862195074202926E+001
       O  5.4414764990888145E+000  2.3719977288497724E+001  1.0443530528176606E+001
       C  5.1085990494519331E+000  2.3118225752693828E+001  9.3639516386477801E+000
       O  5.4684972530504412E+000  2.1943366128987986E+001  9.0172102367474078E+000
       C  4.2200064130946009E+000  2.3827519553109244E+001  8.4256004316803157E+000
       C  3.8454598521345504E+000  5.3441777619944042E-001  8.4533374203417466E+000
       C  2.9753484408029478E+000  8.6344183602924307E-001  7.3987533133214622E+000
       C  2.6761853777250173E+000  2.4401348130540224E+001  6.5883096620461874E+000
       C  1.7303608019414440E+000  2.4415662969969620E+001  5.4500911985669793E+000
       O  1.3513545141774761E+000  2.3314630676615035E+001  4.9341107081383244E+000
       O  1.3358440713098623E+000  9.5394430648262474E-001  5.0943917476552842E+000
       S  3.4844531335520523E+000  2.2975355368109390E+001  7.1159057724240657E+000
       O  5.4055554031519755E+000  2.2353916710909854E+001  1.2835520372825417E+001
       C  4.6731644113288269E+000  2.1380983774139487E+001  1.2459588891051451E+001
       O  4.7598207485108004E+000  2.0741407065852677E+001  1.1355584266424351E+001
       C  3.6201679643353772E+000  2.0936918997356543E+001  1.3379778837422156E+001
       S  3.1289491257507942E+000  2.1915425093074013E+001  4.5614396673666041E-001
       C  1.9970795130100627E+000  2.0719485548969498E+001  9.4980321374270127E-001
       C  1.0926114976163694E+000  2.0959207512686312E+001  2.0793942878808847E+000
       O  4.6939827089710473E-001  1.9941347716386250E+001  2.5285950456379687E+000
       O  9.8851058597781871E-001  2.2166531700330388E+001  2.4918457199783441E+000
       C  2.0115054350393886E+000  1.9600464725316947E+001  1.2915901102982508E-001
       C  2.9259707789468297E+000  1.9737710541462953E+001  1.3319485873382988E+001
       O  7.2608304238810071E+000  2.1777893991030275E+001  1.0959028279848580E+001
       O  8.0659949885735287E+000  2.2929798544154320E+001  1.3193038468969823E+001
       C  9.2289292412446144E+000  2.3413710801468135E+001  1.3440091172968668E+001
       O  9.7066413560723070E+000  2.4492686012238504E+001  1.2958258505783558E+001
       C  1.0097979199962799E+001  2.2652573490874300E+001  1.2044213371678499E-001
       S  1.1670084437093735E+001  2.3226227514523615E+001  5.6262437324443038E-001
       C  1.1965605241704349E+001  2.1830743874080078E+001  1.5368901967281734E+000
       C  1.0874102864321642E+001  2.0971898858168323E+001  1.5285855961241095E+000
       C  9.8107146420747320E+000  2.1440566886644021E+001  7.3336329534745204E-001
       O  7.8433292225812874E+000  1.2980538281878110E-008  1.1057889172867366E+001
       C  5.5886792709614390E+000  1.9760732313586553E+000  1.2044229050376962E-001
       S  4.0165740549839350E+000  1.4024192687800856E+000  5.6262454087859826E-001
       C  3.7210533466988958E+000  2.7979029379643823E+000  1.5368903808377221E+000
       C  2.4539961198821585E+000  3.0052116610337087E+000  2.2914914468618619E+000
       O  1.7228944291110500E+000  1.9841854694420233E+000  2.5271065638394377E+000
       O  2.2032291610216577E+000  4.2116100490400550E+000  2.6463763647221836E+000
       C  4.8125557779291785E+000  3.6567478744146333E+000  1.5285858181007239E+000
       C  5.8759439607846211E+000  3.1880798067739473E+000  7.3336348767940951E-001
       O  1.0281102840112984E+001  2.2747299691409721E+000  1.2835520335497309E+001
       C  1.1013493846183186E+001  3.2476628312831228E+000  1.2459588697580017E+001
       O  1.0926837538464916E+001  3.8872394316425796E+000  1.1355584007698608E+001
       C  1.2066490322310749E+001  3.6917276197233173E+000  1.3379778593582213E+001
       S  1.2557709146470190E+001  2.7132214061483584E+000  4.5614360666452192E-001
       C  1.3689578803591123E+001  3.9091608892052645E+000  9.4980289094699277E-001
       C  1.3675152868844282E+001  5.0281817975949776E+000  1.2915883628840441E-001
       C  1.2760687489531866E+001  4.8909360881572219E+000  1.3319485699213780E+001
       C  1.4594046928930737E+001  3.6694387272511375E+000  2.0793937846522916E+000
       O  1.4698148125830715E+001  2.4621143105984933E+000  2.4918446458552510E+000
       O  1.5217259942781753E+001  4.6872984733407552E+000  2.5285948839017838E+000
       O  1.0245182129020522E+001  9.0866942770778714E-001  1.0443530670261996E+001
       C  1.0578059289256363E+001  1.5104208422412158E+000  9.3639516538809620E+000
       O  1.0218160860987025E+001  2.6852803619207957E+000  9.0172100556375856E+000
       C  1.1466651935122831E+001  8.0112708560985835E-001  8.4256004060453318E+000
       S  1.2202205152309931E+001  1.6532912584449742E+000  7.1159057710910183E+000
       C  1.3010472991596913E+001  2.2729849376470329E-001  6.5883096508024570E+000
       C  1.3956297572029763E+001  2.1298363228898079E-001  5.4500912160158785E+000
       O  1.4335303861284318E+001  1.3140159361238215E+000  4.9341107219376159E+000
       O  1.4350814207342458E+001  2.3674702182137814E+001  5.0943918849981618E+000
       C  1.2711309958176672E+001  2.3765204813313844E+001  7.3987533511982617E+000
       C  1.1841198512278256E+001  2.4094228853204196E+001  8.4533374393962255E+000
       O  1.0820564482578579E+001  5.1351191012193720E+000  9.0121144099383308E+000
       C  1.0926062696911426E+001  6.3760015828780254E+000  8.7535015460659640E+000
       O  1.0092301228743311E+001  7.2873882265524461E+000  9.0884908707065009E+000
       C  1.2102581812838221E+001  6.8498694134403593E+000  7.9989930259606057E+000
       C  1.2559015324816247E+001  8.1620499199463818E+000  7.9524093073877200E+000
       C  1.3707400069539139E+001  8.3012279456535065E+000  7.1524872667678370E+000
       C  1.4095458798217832E+001  7.0978196170014405E+000  6.5800689472682397E+000
       S  1.3073226158879898E+001  5.7918655365374079E+000  7.0514613363199325E+000
       O  9.0307920929954850E+000  5.6488569325008724E+000  1.1053500129109928E+001
       C  6.2521296028621149E+000  5.2165036498007593E+000  7.6677036865515875E+000
       S  5.2298969568073819E+000  6.5224577273084430E+000  7.1963112156844771E+000
       C  4.2592525687706351E+000  5.4644537313525747E+000  6.2487796311551405E+000
       C  3.0827334627639096E+000  5.9383215920753889E+000  5.4942710583010914E+000
       O  2.2489719109941166E+000  5.0269349923728939E+000  5.1592818608936266E+000
       O  2.9772353430654817E+000  7.1792040730581803E+000  5.2356580669096218E+000
       C  4.7156861300072404E+000  4.1522732394622848E+000  6.2953634102074485E+000
       C  5.8640708576805052E+000  4.0130952757080598E+000  7.0952854793316078E+000
       O  8.2954598862961966E+000  9.0300494266378575E+000  9.6618972952089415E+000
       O  1.0046558152396473E+001  8.1027134836070633E+000  1.1601396313867342E+001
       C  1.0297324948452914E+001  9.3091118131491442E+000  1.1956281414155743E+001
       O  9.5662229667359906E+000  1.0330137876954367E+001  1.1720666357036148E+001
       C  1.1564382179439914E+001  9.5164205834581157E+000  1.2710882432372184E+001
       C  1.2655884522448243E+001  8.6575755518175548E+000  1.2719186988169239E+001
       C  1.3719272798212646E+001  9.1262435277953937E+000  1.3514409232120526E+001
       C  1.3432008295286680E+001  1.0338250148526967E+001  1.4127330385804836E+001
       C  1.4301058238574729E+001  1.1099387539826260E+001  8.0768136906422938E-001
       O  1.3823346072540611E+001  1.2178362797334119E+001  1.2895139291295650E+000
       Al  1.4553733814582422E+001  1.3584319858693620E+001  2.3855775708678593E+000
       O  1.3284806244322700E+001  1.3222992335855187E+001  3.8042423644890118E+000
       C  1.2951928436073260E+001  1.3824743966943780E+001  4.8838211283612019E+000
       O  1.3311826330754620E+001  1.4999603669199693E+001  5.2305624768702135E+000
       C  1.2063335663021055E+001  1.3115450194252618E+001  5.8221722099117104E+000
       C  1.1688788985754917E+001  1.1779905515331714E+001  5.7944351670153758E+000
       C  1.0818677487998958E+001  1.1450881529937073E+001  6.8490192435516075E+000
       C  1.0519514516208710E+001  1.2541621731471389E+001  7.6594629177790408E+000
       C  9.5736899315742541E+000  1.2527306903807384E+001  8.7976814033475641E+000
       O  9.1791732731534310E+000  1.1360378982150269E+001  9.1533807182195304E+000
       O  9.1946836691623446E+000  1.3628339202149119E+001  9.3136619191964396E+000
       S  1.1327782393760314E+001  1.3967614441553444E+001  7.1318668215052492E+000
       O  1.3248884530868569E+001  1.4589053203884074E+001  1.4122523708242012E+000
       C  1.2516493525910933E+001  1.5561986085677123E+001  1.7881840092762060E+000
       O  1.2603149771688479E+001  1.6201562666036942E+001  2.8921887116177807E+000
       C  1.1463497033280619E+001  1.6006050881850314E+001  8.6799412190035885E-001
       S  1.0972278261846240E+001  1.5027544648494693E+001  1.3791629046200596E+001
       C  9.8404085330298301E+000  1.6223484119021197E+001  1.3297969832438818E+001
       C  9.8548344010345463E+000  1.7342504976837542E+001  1.4118613936573507E+001
       C  1.0769299798776643E+001  1.7205259298846411E+001  9.2828703663481027E-001
       C  8.9359403980802359E+000  1.5983761916705893E+001  1.2168378948072528E+001
       O  8.3127274318703872E+000  1.7001621647105054E+001  1.1719177775413050E+001
       O  8.8318390937825466E+000  1.4776437429735301E+001  1.1755928267228661E+001
       O  1.5104159490322944E+001  1.5165075936205275E+001  3.2887444454168597E+000
       O  2.2266600695323280E-001  1.4013171484864419E+001  1.0547343624349474E+000
       C  1.3856002553449034E+000  1.3529259282383538E+001  8.0768155440566236E-001
       O  1.8633122310307091E+000  1.2450284001307034E+001  1.2895141615320553E+000
       C  2.2546501590835102E+000  1.4290396596873828E+001  1.4127330574931809E+001
       S  3.8267553385934332E+000  1.3716742562281759E+001  1.3685148180923985E+001
       C  4.1222759553461508E+000  1.5112226246933774E+001  1.2710882395975471E+001
       C  3.0307735953013548E+000  1.5971071221251382E+001  1.2719187053508213E+001
       C  1.9673854755046822E+000  1.5502403168329012E+001  1.3514409429650167E+001
       O  3.8099449846504685E-007  1.2314323378034846E+001  3.1898833381109979E+000
       O  1.5463992486417967E+001  1.0615475326215371E+001  1.0547340855560758E+000
       S  1.1859903105889250E+001  1.0911904253434805E+001  1.3685148194363405E+001
       C  5.8462495485278820E+000  8.4051622751362434E+000  1.3297969291660072E+001
       C  5.8318237399536867E+000  7.2861414899550017E+000  1.4118613558145116E+001
       C  4.9173584932244694E+000  7.4233872921547208E+000  9.2828672878562901E-001
       C  4.2231613013797382E+000  8.6225957498647414E+000  8.6799379312057068E-001
       C  3.1701648088149486E+000  9.0666604815158163E+000  1.7881837179331066E+000
       O  2.4377737618130704E+000  1.0039593376115064E+001  1.4122521893110578E+000
       O  3.0835084152668064E+000  8.4270837956057676E+000  2.8921883616280128E+000
       S  4.7143799696127378E+000  9.6011018469646814E+000  1.3791628547037707E+001
       O  7.8433290474037616E+000  1.2314323171898923E+001  1.1309455519206294E+001
       C  5.1671439109221469E+000  1.2087024767513075E+001  7.6594630477457848E+000
       S  4.3588762189118100E+000  1.0661031988487577E+001  7.1318668785066084E+000
       C  3.6233229907887976E+000  1.1513196152815601E+001  5.8221722294179656E+000
       C  2.7347304350401958E+000  1.0803902408636672E+001  4.8838208948051491E+000
       O  2.3748317803901702E+000  9.6290429362570311E+000  5.2305624646654563E+000
       O  2.4018535744723697E+000  1.1405653727613098E+001  3.8042417696089181E+000
       C  3.9978694662186838E+000  1.2848740894576725E+001  5.7944352734687961E+000
       C  4.8679808662083959E+000  1.3177764954959585E+001  6.8490193793591070E+000
       O  7.3911988158873321E+000  1.5598597072245116E+001  9.6618976015338180E+000
       O  5.5943573934857289E+000  1.7341258308457295E+001  9.0884907289228689E+000
       C  4.7605957144074935E+000  1.8252644855685070E+001  8.7535016568017561E+000
       O  4.8660937478617257E+000  1.9493527297364803E+001  9.0121148199448236E+000
       C  3.5840766140389451E+000  1.7778777008157554E+001  7.9989930753083947E+000
       C  3.1276431147837060E+000  1.6466596487313922E+001  7.9524092742026404E+000
       C  1.9792583671993691E+000  1.6327418469588942E+001  7.1524872420299044E+000
       C  1.5911995806832648E+000  1.7530826826996311E+001  6.5800690099844763E+000
       C  4.8229521699129851E-001  1.7748787936769265E+001  5.6387937317042400E+000
       O  4.0711101178116027E-001  1.8899781655937844E+001  5.0905881991089448E+000
       O  1.5376370020784671E+001  1.6763252752019497E+001  5.4445875894856179E+000
       S  2.6134321863362757E+000  1.8836780905844773E+001  7.0514614671250584E+000
       O  8.2504401925905775E+000  1.8043188195026460E+001  9.1571846618032318E+000
       S  1.0456761262046360E+001  1.8106188982001640E+001  7.1963114367188314E+000
       O  1.5234527691712174E+001  2.1344372685653290E+001  4.5858753446437026E+000
       O  1.1874629082440349E+000  6.6654663188305134E+000  3.1942723939362789E+000
       H  1.1459838800716541E+001  2.1281861907348233E+001  5.7525792140923899E+000
       H  9.2843004613677813E+000  2.1543361387782237E+001  7.2732322924348640E+000
       H  4.1981173350232588E+000  1.2229712265842505E+000  9.2177147562963970E+000
       H  2.5518750573769662E+000  1.8494513032552617E+000  7.2287067115465904E+000
       H  1.3630504222718696E+000  1.8745611126698257E+001  3.0226791540960407E-001
       H  3.1001865820411756E+000  1.9013294154407113E+001  1.2529999747018024E+001
       H  1.0863609247138596E+001  2.0054281406621030E+001  2.1089668860315380E+000
       H  8.8552397105359795E+000  2.0938022254527798E+001  5.9981807835632506E-001
       H  4.8230494369001589E+000  4.5743653050341146E+000  2.1089671313746461E+000
       H  6.8314189233905003E+000  3.6906244091519600E+000  5.9981828825461314E-001
       H  1.4323607938252309E+001  5.8830353325468190E+000  3.0226783511341165E-001
       H  1.2586471691166654E+001  5.6153525614375042E+000  1.2529999639754759E+001
       H  1.3134783374708261E+001  2.2779195360817781E+001  7.2287067624981018E+000
       H  1.1488540996262874E+001  2.3405675381400339E+001  9.2177147847052758E+000
       H  1.2070148712762631E+001  8.9675384188399683E+000  8.4951936923528599E+000
       H  1.4245687097234089E+001  9.2290378574593905E+000  6.9745405658261621E+000
       H  4.2268195201613059E+000  3.3467846797672895E+000  5.7525791383695886E+000
       H  6.4023579040890768E+000  3.0852853979263410E+000  7.2732322441986215E+000
       H  1.2666378027799128E+001  7.7399580967713231E+000  1.2138805743980370E+001
       H  1.4674747700980138E+001  8.6236988256732729E+000  1.3647954372316129E+001
       H  1.2041446366687401E+001  1.1091352032764991E+001  5.0300577887247639E+000
       H  1.0395203988295892E+001  1.0464872107519106E+001  7.0190658272210618E+000
       H  9.2063793067965918E+000  1.8197358471371960E+001  1.3945504964002277E+001
       H  1.0943515478728493E+001  1.7929675725764675E+001  1.7177731322123750E+000
       H  3.0202799212549301E+000  1.6888688607259230E+001  1.2138805716602540E+001
       H  1.0119105675240299E+000  1.6004947777959128E+001  1.3647954738448476E+001
       H  6.4802787420236427E+000  6.4312879297573931E+000  1.3945504595783813E+001
       H  4.7431427591938808E+000  6.6989709417290975E+000  1.7177728756570241E+000
       H  3.6452119246650390E+000  1.3537294378758018E+001  5.0300579827033118E+000
       H  5.2914542665087403E+000  1.4163774405280744E+001  7.0190660595175149E+000
       H  3.6165097567040854E+000  1.5661107946334505E+001  8.4951935713879365E+000
       H  1.4409713627466763E+000  1.5399608547134127E+001  6.9745405179530700E+000
       H -1.9937188724766408E-001  9.0676260542136067E+000  2.8729826032728214E+000
       H  8.6960053475209798E-001  3.1605740538662590E+000  5.4521807601867840E+000
       H -4.4798178564308969E-006  3.4826305909594575E-007  1.9697560698000782E+000
       H  1.3996956160310964E+001  1.8019670649273895E+001  2.3653278236067359E+000
       H  6.1536269353588313E+000  1.8923299086079133E+001  1.1882444870333353E+001
       H  7.6439570004231880E+000  3.2466973119919684E+000  1.1374789719152284E+001
       H  8.0427014542009037E+000  2.1381949331576859E+001  1.1374789482719009E+001
       H  7.8433273640704968E+000  1.5225438958084835E-006  1.0089855598034541E+001
       H  9.5330312035185649E+000  5.7053472643195651E+000  1.1882444844011030E+001
       H  8.7129307871837707E+000  9.1537492336590773E+000  8.7955920262752638E+000
       H  1.5886030806506293E+001  1.5561020513092732E+001  2.8729837227399693E+000
       H -5.9086561409962391E-006  1.2314318228200271E+001  4.1579169026881022E+000
       H  7.8433359451064737E+000  1.2314323807490450E+001  1.2278016588599108E+001
       H  6.9737291048601691E+000  1.5474897412644426E+001  8.7955917413202727E+000
       H  1.4817057344279718E+001  2.1468072451965444E+001  5.4521808845657569E+000
       H  1.6897023322550428E+000  6.6089759328201101E+000  2.3653278746680768E+000
     &END COORD
     &KIND "Al"
       BASIS_SET "TZV2P-MOLOPT-PBE-GTH-q3"
       POTENTIAL "GTH-PBE-q3"
       &POTENTIAL
         2 1 0 0
           4.5000971106835003E-001 1 -7.5564499723706300E+000
         2
           4.8744057136205998E-001 2  6.9600853325604701E+000 -1.8888353594466800E+000
                                                               2.4384834469484500E+000
           5.6227366274780000E-001 1  1.8653632021254301E+000
         # Potential name: GTH-PBE-Q3 for element symbol: AL
         # Potential read from the potential filename: POTENTIAL_UZH
       &END POTENTIAL
     &END KIND
     &KIND "O"
       BASIS_SET "TZV2P-MOLOPT-PBE-GTH-q6"
       POTENTIAL "GTH-PBE-q6"
       &POTENTIAL
         2 4 0 0
           2.4446328480160001E-001 2 -1.6675482223638369E+001  2.4890859824178002E+000
         1
           2.2097110943470999E-001 1  1.8334468664062850E+001
         # Potential name: GTH-PBE-Q6 for element symbol: O
         # Potential read from the potential filename: POTENTIAL_UZH
       &END POTENTIAL
     &END KIND
     &KIND "S"
       BASIS_SET "TZV2P-MOLOPT-PBE-GTH-q6"
       POTENTIAL "GTH-PBE-q6"
       &POTENTIAL
         2 4 0 0
           4.2011499303897998E-001 1 -5.9747803862195896E+000
         2
           3.6482480920276000E-001 2  1.3144660447404330E+001 -4.2418299542725197E+000
                                                               5.4761779684641398E+000
           4.0947908948436001E-001 1  3.7008698706060401E+000
         # Potential name: GTH-PBE-Q6 for element symbol: S
         # Potential read from the potential filename: POTENTIAL_UZH
       &END POTENTIAL
     &END KIND
     &KIND "C"
       BASIS_SET "TZV2P-MOLOPT-PBE-GTH-q4"
       POTENTIAL "GTH-PBE-q4"
       &POTENTIAL
         2 2 0 0
           3.3855479630051000E-001 2 -8.8045519542077599E+000  1.3383767831418500E+000
         1
           3.0260967537284000E-001 1  9.6228624962866895E+000
         # Potential name: GTH-PBE-Q4 for element symbol: C
         # Potential read from the potential filename: POTENTIAL_UZH
       &END POTENTIAL
     &END KIND
     &KIND "H"
       BASIS_SET "TZV2P-MOLOPT-PBE-GTH-q1"
       POTENTIAL "GTH-PBE-q1"
       &POTENTIAL
         1 0 0 0
           2.0059317301776000E-001 2 -4.1780683247725996E+000  7.2440924243367999E-001
         0
         # Potential name: GTH-PBE-Q1 for element symbol: H
         # Potential read from the potential filename: POTENTIAL_UZH
       &END POTENTIAL
     &END KIND
     &TOPOLOGY
       COORD_FILE_NAME CAU-23.xyz
       COORD_FILE_FORMAT XYZ
       NUMBER_OF_ATOMS 256
       MULTIPLE_UNIT_CELL 1 1 1
     &END TOPOLOGY
   &END SUBSYS
 &END FORCE_EVAL
