lattice_vector      10.00000000       0.00000000       0.00000000
lattice_vector       0.00000000      10.00000000       0.00000000
lattice_vector       0.00000000       0.00000000      10.00000000
atom_frac       0.50000000       0.50000000       0.50000000 H_1
atom_frac       0.75000000       0.25000000       0.15000000 H

