&CONTROL
    prefix='molecule',
    pseudo_dir  = '/user/pubo1141/simulations/UPFs/pslibrary.1.0.0/pbe/PSEUDOPOTENTIALS/',
    outdir = './output',
    calculation = 'scf',
    wf_collect = .true.,
 /
 &SYSTEM
    assume_isolated = 'martyna-tuckerman',
    ibrav = 8,
    A = 18.410916,
    B = 19.764488,
    C = 15.0,
    nat = 9,
    ntyp = 4,
    ecutwfc = 150.0,
    ecutrho = 1000.0,
    nbnd = 50,
/
&ELECTRONS
    mixing_beta = 0.7,
    conv_thr = 1d-8,
/
&IONS
/
ATOMIC_SPECIES
  C 12.0107 C.pbe-n-kjpaw_psl.1.0.0.UPF
  H 1.00794 H.pbe-kjpaw_psl.1.0.0.UPF
  N 14.00674 N.pbe-n-kjpaw_psl.1.0.0.UPF
  Cl 35.4527 Cl.pbe-n-kjpaw_psl.1.0.0.UPF

ATOMIC_POSITIONS {angstrom}
  C             8.8205195588       10.4076614111        7.5000000000
  N             9.9647371317        9.6578028586        7.5000000000
  C             9.5678818507        8.3310191351        7.5000000000
  C             8.1937576318        8.3660050613        7.5000000000
  N             7.7333132550        9.6714893833        7.5000000000
  Cl            8.8857632570       12.1207820138        7.5000000000
  H             7.5021283269        7.5298289713        7.5000000000
  H            10.2840395845        7.5179920799        7.5000000000
  H            10.9131594037       10.0157880856        7.5000000000

K_POINTS gamma
