&CONTROL
    prefix='molecule',
    pseudo_dir  = '/user/pubo1141/simulations/UPFs/pslibrary.1.0.0/pbe/PSEUDOPOTENTIALS/',
    outdir = './output',
    calculation = 'scf',
    wf_collect = .true.,
 /
 &SYSTEM
    assume_isolated = 'martyna-tuckerman',
    ibrav = 8,
    A = 18.4050827575,
    B = 19.766686167921122,
    C = 16.691351989090272,
    nat = 12,
    ntyp = 3,
    ecutwfc = 150.0,
    ecutrho = 1000.0,
    nbnd = 50,
/
&ELECTRONS
    mixing_beta = 0.7,
    conv_thr = 1d-8,
/
&IONS
/
ATOMIC_SPECIES
  C 12.0107 C.pbe-n-kjpaw_psl.1.0.0.UPF
  H 1.00794 H.pbe-kjpaw_psl.1.0.0.UPF
  N 14.00674 N.pbe-n-kjpaw_psl.1.0.0.UPF

ATOMIC_POSITIONS {angstrom}
C             8.7842694899       10.3923260231        8.5155062724
N             9.9331705277        9.6364448324        8.5055990356
C             9.5643431080        8.3023513638        8.5001383023
C             8.1905865668        8.3121662153        8.5047342199
N             7.7143141637        9.6083920942        8.5152975959
H             7.5166246969        7.4612947584        8.5038211271
H            10.2936046570        7.5011103679        8.5016779801
H            10.8859761334        9.9835709655        8.5078955560
C             8.7697117070       11.8833067913        8.5042876936
H             7.7764508391       12.2257454261        8.8156394773
H             8.9681660762       12.2885915584        7.4997405773
H             9.5160814845       12.3109134936        9.1889057624

K_POINTS gamma
