 # Version information for this restart file 
 # current date 2024-07-06 09:45:27.864
 # current working dir /scratch-grete/usr/nichdsas/test_parser/cp2k-2024.1/cell_opt_cg_spgr_medium
 # Program compiled at                                       2024-05-28 17:35:28
 # Program compiled on                                                          
 # Program compiled for                                                   x86_64
 # Source code revision number                                                  
 &GLOBAL
   PREFERRED_DIAG_LIBRARY SCALAPACK
   EXTENDED_FFT_LENGTHS T
   PRINT_LEVEL MEDIUM
   PROJECT_NAME "aiida"
   RUN_TYPE CELL_OPT
 &END GLOBAL
 &MOTION
   &CELL_OPT
     OPTIMIZER CG
     MAX_ITER 25
     MAX_FORCE  9.7000000000000000E-005
     STEP_START_VAL 9
     KEEP_SPACE_GROUP T
     EPS_SYMMETRY  5.0000000000000001E-003
     TYPE DIRECT_CELL_OPT
     KEEP_ANGLES T
     PRESSURE_TOLERANCE  1.0000000000000000E+002
     &CG
       &LINE_SEARCH
         TYPE 2PNT
       &END LINE_SEARCH
     &END CG
     &BFGS
       TRUST_RADIUS  7.5000000000000006E-003
     &END BFGS
   &END CELL_OPT
 &END MOTION
 &FORCE_EVAL
   METHOD QS
   STRESS_TENSOR ANALYTICAL
   &DFT
     BASIS_SET_FILE_NAME BASIS_MOLOPT_UCL
     BASIS_SET_FILE_NAME BASIS_MOLOPT
     POTENTIAL_FILE_NAME POTENTIAL_UZH
     &SCF
       MAX_SCF 50
       EPS_SCF  4.9999999999999998E-007
       SCF_GUESS RESTART
       ADDED_MOS 72
       &SMEAR F
       &END SMEAR
       &MIXING T
         METHOD BROYDEN_MIXING
         ALPHA  5.0000000000000000E-001
         BETA  5.0000000000000000E-001
         NBUFFER 10
       &END MIXING
     &END SCF
     &QS
       EPS_DEFAULT  1.0000000000000000E-014
       EXTRAPOLATION USE_GUESS
     &END QS
     &MGRID
       NGRIDS 4
       CUTOFF  5.5000000000000000E+002
       REL_CUTOFF  1.0000000000000000E+002
     &END MGRID
     &XC
       DENSITY_CUTOFF  1.0000000000000000E-010
       GRADIENT_CUTOFF  1.0000000000000000E-010
       TAU_CUTOFF  1.0000000000000000E-010
       &XC_FUNCTIONAL NO_SHORTCUT
         &MGGA_X_SCAN T
         &END MGGA_X_SCAN
         &MGGA_C_SCAN T
         &END MGGA_C_SCAN
       &END XC_FUNCTIONAL
     &END XC
     &POISSON
       POISSON_SOLVER PERIODIC
       PERIODIC XYZ
     &END POISSON
     &KPOINTS
       SCHEME "MONKHORST-PACK" "6" "4" "4"
       SYMMETRY F
       FULL_GRID F
       EPS_GEO  1.0000000000000000E-008
     &END KPOINTS
   &END DFT
   &SUBSYS
     &CELL
       A  7.0579639293102430E+000  0.0000000000000000E+000  0.0000000000000000E+000
       B  0.0000000000000000E+000  1.1023934746141553E+001  0.0000000000000000E+000
       C  0.0000000000000000E+000  0.0000000000000000E+000  1.0089942490677647E+001
       PERIODIC XYZ
       MULTIPLE_UNIT_CELL 1 1 1
       &CELL_REF
         A  1.0788679242671703E+001  0.0000000000000000E+000  0.0000000000000000E+000
         B  0.0000000000000000E+000  1.6177243367826001E+001  0.0000000000000000E+000
         C  0.0000000000000000E+000  0.0000000000000000E+000  2.7227980802737502E+001
         PERIODIC XYZ
         MULTIPLE_UNIT_CELL 1 1 1
       &END CELL_REF
     &END CELL
     &COORD
       Te  5.9150341217632745E+000  1.0451246346236463E+001  8.2859759089263427E+000
       Te  1.1429293334595796E+000  5.7268893389460351E-001  3.2410046633146030E+000
       Te  5.9150341210788513E+000  5.7268893386266295E-001  1.8039657562336802E+000
       Te  1.1429293333883923E+000  1.0451246346653814E+001  6.8489370017329527E+000
       Te  3.5289817272532242E+000  8.8506522924854867E+000  2.5224852097046879E+000
       Te  3.5289817272532242E+000  2.1732829879923883E+000  7.5674564550435113E+000
       Te  1.7823250539246935E+000  3.7556414397904865E+000  6.1197714721414522E+000
       Te  5.2756384008018093E+000  7.2682938413013654E+000  1.0748002257997022E+000
       Te  1.7823250537114899E+000  7.2682938412397000E+000  3.9701701935165379E+000
       Te  5.2756384007919390E+000  3.7556414392967863E+000  9.0151414387526785E+000
       Te  2.3845537350213402E+000  8.3191782035537489E+000  8.2656751598610345E+000
       Te  4.6734097183962566E+000  2.7047570769969695E+000  3.2207039143251235E+000
       Te  2.3845537359740163E+000  2.7047570770040057E+000  1.8242665051146068E+000
       Te  4.6734097186690811E+000  8.3191782034687574E+000  6.8692377504899875E+000
       Te -2.3740189716243788E-007  5.7372459890988958E+000  2.5224852097046879E+000
       Te -2.3740189716243788E-007  5.2866892913798846E+000  7.5674564550435113E+000
     &END COORD
     &KIND "Te"
       BASIS_SET "TZV2P-MOLOPT-SR-GTH-q6"
       POTENTIAL "GTH-SCAN-q6"
       &POTENTIAL
         2 4 0 0
           5.7308901303139004E-001 1  8.6690964434990292E+000
         3
           5.7602731224381998E-001 3  1.4008881004039500E+000  9.7877859789941002E-001 -4.8630717624060998E-001
                                                              -2.0545537870534298E+000  1.2556369662442000E+000
                                                                                       -9.9657068593813003E-001
           5.8676060107675998E-001 2  7.5737856440784002E-001  3.2398535973148002E-001
                                                              -3.9253370314657998E-001
           8.1340348247750005E-001 1  3.2369785182772998E-001
         # Potential name: GTH-SCAN-Q6 for element symbol: TE
         # Potential read from the potential filename: POTENTIAL_UZH
       &END POTENTIAL
     &END KIND
     &TOPOLOGY
       COORD_FILE_NAME aiida.coords.xyz
       COORD_FILE_FORMAT XYZ
       NUMBER_OF_ATOMS 16
       MULTIPLE_UNIT_CELL 1 1 1
     &END TOPOLOGY
   &END SUBSYS
 &END FORCE_EVAL
