 # Version information for this restart file 
 # current date 2024-07-06 09:41:31.145
 # current working dir /scratch-grete/usr/nichdsas/test_parser/cp2k-2024.1/cell_opt_cg_spgr_medium
 # Program compiled at                                       2024-05-28 17:35:28
 # Program compiled on                                                          
 # Program compiled for                                                   x86_64
 # Source code revision number                                                  
 &GLOBAL
   PREFERRED_DIAG_LIBRARY SCALAPACK
   EXTENDED_FFT_LENGTHS T
   PRINT_LEVEL MEDIUM
   PROJECT_NAME "aiida"
   RUN_TYPE CELL_OPT
 &END GLOBAL
 &MOTION
   &CELL_OPT
     OPTIMIZER CG
     MAX_ITER 25
     MAX_FORCE  9.7000000000000000E-005
     STEP_START_VAL 6
     KEEP_SPACE_GROUP T
     EPS_SYMMETRY  5.0000000000000001E-003
     TYPE DIRECT_CELL_OPT
     KEEP_ANGLES T
     PRESSURE_TOLERANCE  1.0000000000000000E+002
     &CG
       &LINE_SEARCH
         TYPE 2PNT
       &END LINE_SEARCH
     &END CG
     &BFGS
       TRUST_RADIUS  7.5000000000000006E-003
     &END BFGS
   &END CELL_OPT
 &END MOTION
 &FORCE_EVAL
   METHOD QS
   STRESS_TENSOR ANALYTICAL
   &DFT
     BASIS_SET_FILE_NAME BASIS_MOLOPT_UCL
     BASIS_SET_FILE_NAME BASIS_MOLOPT
     POTENTIAL_FILE_NAME POTENTIAL_UZH
     &SCF
       MAX_SCF 50
       EPS_SCF  4.9999999999999998E-007
       SCF_GUESS RESTART
       ADDED_MOS 72
       &SMEAR F
       &END SMEAR
       &MIXING T
         METHOD BROYDEN_MIXING
         ALPHA  5.0000000000000000E-001
         BETA  5.0000000000000000E-001
         NBUFFER 10
       &END MIXING
     &END SCF
     &QS
       EPS_DEFAULT  1.0000000000000000E-014
       EXTRAPOLATION USE_GUESS
     &END QS
     &MGRID
       NGRIDS 4
       CUTOFF  5.5000000000000000E+002
       REL_CUTOFF  1.0000000000000000E+002
     &END MGRID
     &XC
       DENSITY_CUTOFF  1.0000000000000000E-010
       GRADIENT_CUTOFF  1.0000000000000000E-010
       TAU_CUTOFF  1.0000000000000000E-010
       &XC_FUNCTIONAL NO_SHORTCUT
         &MGGA_X_SCAN T
         &END MGGA_X_SCAN
         &MGGA_C_SCAN T
         &END MGGA_C_SCAN
       &END XC_FUNCTIONAL
     &END XC
     &POISSON
       POISSON_SOLVER PERIODIC
       PERIODIC XYZ
     &END POISSON
     &KPOINTS
       SCHEME "MONKHORST-PACK" "6" "4" "4"
       SYMMETRY F
       FULL_GRID F
       EPS_GEO  1.0000000000000000E-008
     &END KPOINTS
   &END DFT
   &SUBSYS
     &CELL
       A  7.0472798750217462E+000  0.0000000000000000E+000  0.0000000000000000E+000
       B  0.0000000000000000E+000  1.1024501887567439E+001  0.0000000000000000E+000
       C  0.0000000000000000E+000  0.0000000000000000E+000  1.0109755528252192E+001
       PERIODIC XYZ
       MULTIPLE_UNIT_CELL 1 1 1
       &CELL_REF
         A  1.0788679242671703E+001  0.0000000000000000E+000  0.0000000000000000E+000
         B  0.0000000000000000E+000  1.6177243367826001E+001  0.0000000000000000E+000
         C  0.0000000000000000E+000  0.0000000000000000E+000  2.7227980802737502E+001
         PERIODIC XYZ
         MULTIPLE_UNIT_CELL 1 1 1
       &END CELL_REF
     &END CELL
     &COORD
       Te  5.9020692329118365E+000  1.0458084051331973E+001  8.2996724661233188E+000
       Te  1.1452101671297163E+000  5.6641837182129040E-001  3.2447947036952822E+000
       Te  5.9020692337719893E+000  5.6641837175496235E-001  1.8100822329702519E+000
       Te  1.1452101669410979E+000  1.0458084049922094E+001  6.8649599967367694E+000
       Te  3.5236397004683453E+000  8.8523927297053877E+000  2.5274384682874094E+000
       Te  3.5236397004683453E+000  2.1721096922306198E+000  7.5823162324135058E+000
       Te  1.7801219734493281E+000  3.7576805947715495E+000  6.1354540363731527E+000
       Te  5.2671574275667856E+000  7.2668218288034607E+000  1.0805762711215909E+000
       Te  1.7801219733741387E+000  7.2668218287335078E+000  3.9743006653708841E+000
       Te  5.2671574275827515E+000  3.7576805928098715E+000  9.0291784296065529E+000
       Te  2.3766532529436328E+000  8.3202523480421355E+000  8.2803979626672071E+000
       Te  4.6706261459365379E+000  2.7042500739252078E+000  3.2255201987847393E+000
       Te  2.3766532549295185E+000  2.7042500739471480E+000  1.8293567377574722E+000
       Te  4.6706261454290035E+000  8.3202523478755630E+000  6.8842345016055591E+000
       Te -2.3704252797567512E-007  5.7332974113934920E+000  2.5274384682874094E+000
       Te -2.3704252797567519E-007  5.2912050105391186E+000  7.5823162324135058E+000
     &END COORD
     &KIND "Te"
       BASIS_SET "TZV2P-MOLOPT-SR-GTH-q6"
       POTENTIAL "GTH-SCAN-q6"
       &POTENTIAL
         2 4 0 0
           5.7308901303139004E-001 1  8.6690964434990292E+000
         3
           5.7602731224381998E-001 3  1.4008881004039500E+000  9.7877859789941002E-001 -4.8630717624060998E-001
                                                              -2.0545537870534298E+000  1.2556369662442000E+000
                                                                                       -9.9657068593813003E-001
           5.8676060107675998E-001 2  7.5737856440784002E-001  3.2398535973148002E-001
                                                              -3.9253370314657998E-001
           8.1340348247750005E-001 1  3.2369785182772998E-001
         # Potential name: GTH-SCAN-Q6 for element symbol: TE
         # Potential read from the potential filename: POTENTIAL_UZH
       &END POTENTIAL
     &END KIND
     &TOPOLOGY
       COORD_FILE_NAME aiida.coords.xyz
       COORD_FILE_FORMAT XYZ
       NUMBER_OF_ATOMS 16
       MULTIPLE_UNIT_CELL 1 1 1
     &END TOPOLOGY
   &END SUBSYS
 &END FORCE_EVAL
