 # Version information for this restart file 
 # current date 2022-03-28 13:05:14.954
 # current working dir /scratch/usr/nichdsas/TiO2-project/unit_cell/PBE
 # Program compiled at                              Thu Feb 17 15:49:54 CET 2022
 # Program compiled on                                                   glogin5
 # Program compiled for                                                    local
 # Source code revision number                                       git:d8d7100
 &GLOBAL
   PRINT_LEVEL  MEDIUM
   PROJECT_NAME bulk_rlx
   RUN_TYPE  CELL_OPT
 &END GLOBAL
 &MOTION
   &CELL_OPT
     OPTIMIZER  BFGS
     MAX_ITER  100
     MAX_FORCE     9.7000000000000000E-05
     STEP_START_VAL  9
     TYPE  DIRECT_CELL_OPT
     KEEP_ANGLES  T
     &PRINT
       &CELL  ON
       &END CELL
     &END PRINT
   &END CELL_OPT
 &END MOTION
 &FORCE_EVAL
   METHOD  QS
   STRESS_TENSOR  ANALYTICAL
   &DFT
     BASIS_SET_FILE_NAME BASIS_MOLOPT
     BASIS_SET_FILE_NAME BASIS_MOLOPT_UCL
     POTENTIAL_FILE_NAME GTH_POTENTIALS
     &SCF
       MAX_SCF  150
       EPS_SCF     4.9999999999999998E-07
       SCF_GUESS  RESTART
       &MIXING  T
         METHOD  BROYDEN_MIXING
         ALPHA     2.9999999999999999E-01
         NBUFFER  30
       &END MIXING
     &END SCF
     &QS
       EPS_DEFAULT     1.0000000000000000E-14
     &END QS
     &MGRID
       NGRIDS  5
       CUTOFF     6.0000000000000000E+02
       REL_CUTOFF     1.0000000000000000E+02
     &END MGRID
     &XC
       DENSITY_CUTOFF     1.0000000000000000E-10
       GRADIENT_CUTOFF     1.0000000000000000E-10
       TAU_CUTOFF     1.0000000000000000E-10
       &XC_FUNCTIONAL  NO_SHORTCUT
         &PBE  T
         &END PBE
       &END XC_FUNCTIONAL
     &END XC
     &POISSON
       PERIODIC  XYZ
     &END POISSON
     &KPOINTS
       SCHEME MONKHORST-PACK 10 10 14
     &END KPOINTS
   &END DFT
   &SUBSYS
     &CELL
       A     4.6475171331873373E+00    0.0000000000000000E+00    0.0000000000000000E+00
       B     0.0000000000000000E+00    4.6475171331576810E+00    0.0000000000000000E+00
       C     0.0000000000000000E+00    0.0000000000000000E+00    2.9662124043731919E+00
       PERIODIC  XYZ
       MULTIPLE_UNIT_CELL  1 1 1
     &END CELL
     &COORD
Ti   -2.0706577093995375E-09    1.4860048265719099E-09    1.2824628927894947E-10
Ti    2.3237585668252967E+00    2.3237585681155331E+00    1.4831062024088724E+00
O    1.4195632455736733E+00    1.4195632483027143E+00   -1.1377334745805508E-10
O    3.2279538833108812E+00    3.2279538858790797E+00   -1.1890355611843759E-10
O    9.0424654117308978E-01    3.7432705928298295E+00    1.4831062018614920E+00
O    3.7432705984752905E+00    9.0424653541553945E-01    1.4831062018044274E+00
     &END COORD
     &KIND Ti
       BASIS_SET TZV2P-MOLOPT-SR-GTH-q12
       POTENTIAL GTH-PBE-q12
       &POTENTIAL
 4 6 2
  0.3800000000000000E+00 2  0.8711442180000001E+01 -0.7002867699999999E+00
 3
  0.3377707800000000E+00 2  0.2575263860000000E+01  0.3692970650000000E+01
 -0.4767604610000000E+01
  0.2425313500000000E+00 2 -0.4630541230000000E+01  0.8870875020000000E+01
 -0.1049616087000000E+02
  0.2433169400000000E+00 1 -0.9406652680000001E+01
         # Potential name:  GTH-PBE-Q12  for symbol:  TI
         # Potential read from the potential filename: GTH_POTENTIALS
       &END POTENTIAL
     &END KIND
     &KIND O
       BASIS_SET TZV2P-MOLOPT-GTH-q6
       POTENTIAL GTH-PBE-q6
       &POTENTIAL
 2 4
  0.2445543000000000E+00 2 -0.1666721480000000E+02  0.2487311320000000E+01
 2
  0.2209559200000000E+00 1  0.1833745811000000E+02
  0.2113324700000000E+00 0
         # Potential name:  GTH-PBE-Q6  for symbol:  O
         # Potential read from the potential filename: GTH_POTENTIALS
       &END POTENTIAL
     &END KIND
     &TOPOLOGY
       NUMBER_OF_ATOMS  6
       MULTIPLE_UNIT_CELL  1 1 1
     &END TOPOLOGY
   &END SUBSYS
 &END FORCE_EVAL
