 # Version information for this restart file 
 # current date 2022-04-14 13:08:32.316
 # current working dir /nfs/data/pubo1141/TiO2-project/molecules/H2O
 # Program compiled at                             Tue Jun 22 11:51:20 CEST 2021
 # Program compiled on                                                   hpcl001
 # Program compiled for                                       Linux-x86-64-gomkl
 # Source code revision number                                       git:310b7ab
 &GLOBAL
   PRINT_LEVEL  LOW
   PROJECT_NAME H2O_geo_opt
   RUN_TYPE  GEO_OPT
 &END GLOBAL
 &MOTION
   &GEO_OPT
     TYPE  MINIMIZATION
     OPTIMIZER  BFGS
     MAX_ITER  100
     MAX_FORCE     1.9000000000000001E-05
     STEP_START_VAL  11
   &END GEO_OPT
 &END MOTION
 &FORCE_EVAL
   METHOD  QS
   &DFT
     BASIS_SET_FILE_NAME BASIS_MOLOPT
     BASIS_SET_FILE_NAME BASIS_MOLOPT_UCL
     POTENTIAL_FILE_NAME POTENTIAL
     &SCF
       MAX_SCF  150
       EPS_SCF     4.9999999999999998E-07
       SCF_GUESS  RESTART
       &MIXING  T
         METHOD  BROYDEN_MIXING
         ALPHA     2.0000000000000001E-01
       &END MIXING
     &END SCF
     &QS
       EPS_DEFAULT     1.0000000000000000E-14
       EXTRAPOLATION  USE_GUESS
     &END QS
     &MGRID
       NGRIDS  5
       CUTOFF     6.0000000000000000E+02
       REL_CUTOFF     1.0000000000000000E+02
     &END MGRID
     &XC
       DENSITY_CUTOFF     1.0000000000000000E-10
       GRADIENT_CUTOFF     1.0000000000000000E-10
       TAU_CUTOFF     1.0000000000000000E-10
       &XC_FUNCTIONAL  NO_SHORTCUT
         &PBE  T
         &END PBE
       &END XC_FUNCTIONAL
     &END XC
     &POISSON
       POISSON_SOLVER  MT
       PERIODIC  NONE
     &END POISSON
   &END DFT
   &SUBSYS
     &CELL
       A     2.0000000000000004E+01    0.0000000000000000E+00    0.0000000000000000E+00
       B     0.0000000000000000E+00    2.0000000000000004E+01    0.0000000000000000E+00
       C     0.0000000000000000E+00    0.0000000000000000E+00    2.0000000000000004E+01
       PERIODIC  NONE
       MULTIPLE_UNIT_CELL  1 1 1
     &END CELL
     &COORD
O    9.9999999999995950E+00    1.0000000000002840E+01    1.0267039588900131E+01
H    9.9999999999990159E+00    1.0765904267035040E+01    9.6716692258520069E+00
H    9.9999999999992077E+00    9.2340957329655389E+00    9.6716692258593628E+00
     &END COORD
     &KIND H
       BASIS_SET TZV2P-MOLOPT-GTH
       POTENTIAL GTH-PBE-q1
       &POTENTIAL
 1
  0.2000000000000000E+00 2 -0.4178900440000000E+01  0.7244633100000000E+00
 0
         # Potential name:  GTH-PBE-Q1  for symbol:  H
         # Potential read from the potential filename: POTENTIAL
       &END POTENTIAL
     &END KIND
     &KIND O
       BASIS_SET TZV2P-MOLOPT-GTH
       POTENTIAL GTH-PBE-q6
       &POTENTIAL
 2 4
  0.2445543000000000E+00 2 -0.1666721480000000E+02  0.2487311320000000E+01
 2
  0.2209559200000000E+00 1  0.1833745811000000E+02
  0.2113324700000000E+00 0
         # Potential name:  GTH-PBE-Q6  for symbol:  O
         # Potential read from the potential filename: POTENTIAL
       &END POTENTIAL
     &END KIND
     &TOPOLOGY
       NUMBER_OF_ATOMS  3
       MULTIPLE_UNIT_CELL  1 1 1
       &CENTER_COORDINATES  T
       &END CENTER_COORDINATES
     &END TOPOLOGY
   &END SUBSYS
 &END FORCE_EVAL
