 # Version information for this restart file 
 # current date 2022-01-04 08:15:46.751
 # current working dir /scratch/usr/nichdsas/cp2k-parser-tests/9.1/cell_opt_1kpoint_medium
 # Program compiled at                              Mon Jan  3 14:05:13 CET 2022
 # Program compiled on                                                   glogin4
 # Program compiled for                                          hlrn-gompi-foss
 # Source code revision number                                       git:d8d7100
 &GLOBAL
   PRINT_LEVEL  LOW
   PROJECT_NAME aiida
   RUN_TYPE  CELL_OPT
 &END GLOBAL
 &MOTION
   &CELL_OPT
     OPTIMIZER  BFGS
     MAX_ITER  100
     MAX_DR     1.0000000000000000E+00
     MAX_FORCE     5.0000000000000003E-02
     RMS_DR     5.0000000000000000E-01
     RMS_FORCE     5.0000000000000000E-01
     STEP_START_VAL  6
     TYPE  DIRECT_CELL_OPT
     PRESSURE_TOLERANCE     1.0000000000000000E+03
     &PRINT
       &CELL  ON
       &END CELL
     &END PRINT
   &END CELL_OPT
 &END MOTION
 &FORCE_EVAL
   METHOD  QS
   STRESS_TENSOR  ANALYTICAL
   &DFT
     BASIS_SET_FILE_NAME BASIS_MOLOPT
     BASIS_SET_FILE_NAME BASIS_MOLOPT_UCL
     POTENTIAL_FILE_NAME GTH_POTENTIALS
     &SCF
       MAX_SCF  150
       EPS_SCF     1.0000000000000000E-04
       SCF_GUESS  RESTART
       &MIXING  T
         METHOD  BROYDEN_MIXING
         ALPHA     2.9999999999999999E-01
         NBUFFER  20
       &END MIXING
     &END SCF
     &QS
       EPS_DEFAULT     1.0000000000000000E-08
     &END QS
     &MGRID
       NGRIDS  5
       CUTOFF     2.0000000000000000E+02
       REL_CUTOFF     4.0000000000000000E+01
     &END MGRID
     &XC
       DENSITY_CUTOFF     1.0000000000000000E-10
       GRADIENT_CUTOFF     1.0000000000000000E-10
       TAU_CUTOFF     1.0000000000000000E-10
       &XC_FUNCTIONAL  NO_SHORTCUT
         &PBE  T
         &END PBE
       &END XC_FUNCTIONAL
     &END XC
     &POISSON
       PERIODIC  XYZ
     &END POISSON
     &KPOINTS
       SCHEME MONKHORST-PACK 1 1 1
     &END KPOINTS
   &END DFT
   &SUBSYS
     &CELL
       A     6.2415147044005002E+00    0.0000000000000000E+00    0.0000000000000000E+00
       B     3.2965383397378778E+00    5.3073845487617026E+00    0.0000000000000000E+00
       C     3.2966519056052550E+00    1.8978235049513221E+00    4.9582109668265186E+00
       PERIODIC  XYZ
       MULTIPLE_UNIT_CELL  1 1 1
     &END CELL
     &COORD
Cs    3.2220336583415450E+00    1.8110140589582535E+00    1.2461628069818336E+00
Cs    9.6127732373166150E+00    5.3941537466676763E+00    3.7120516499523615E+00
Cs    6.4172662903167303E+00    3.6026288288419588E+00    2.4791038225560484E+00
Sb   -1.5740736543405011E-05    1.5435237027023352E-05   -1.7775747674374559E-06
     &END COORD
     &KIND Cs
       BASIS_SET DZVP-MOLOPT-SR-GTH
       POTENTIAL GTH-PBE-q9
       &POTENTIAL
 3 6
  0.5400000000000000E+00 2  0.3331331676000000E+02 -0.2921216700000000E+01
 4
  0.4618956800000000E+00 2 -0.3322927000000000E+01  0.2455653380000000E+01
 -0.3170234880000000E+01
  0.3663586000000000E+00 2 -0.4950764050000000E+01  0.8403897700000000E+00
 -0.9943625900000000E+00
  0.7615019300000000E+00 1  0.1984072300000000E+00
  0.5970150300000000E+00 1 -0.1550566930000000E+01
         # Potential name:  GTH-PBE-Q9  for symbol:  CS
         # Potential read from the potential filename: GTH_POTENTIALS
       &END POTENTIAL
     &END KIND
     &KIND Sb
       BASIS_SET DZVP-MOLOPT-SR-GTH
       POTENTIAL GTH-PBE-q5
       &POTENTIAL
 2 3
  0.5900000000000000E+00 1  0.7928520840000000E+01
 3
  0.5561363600000000E+00 3  0.1430477900000000E+01  0.1261425990000000E+01 -0.9232335300000000E+00
 -0.3130133400000000E+01  0.2383778720000000E+01
 -0.1892065700000000E+01
  0.6227550700000000E+00 2  0.5614723300000000E+00  0.3048452200000000E+00
 -0.3606977300000000E+00
  0.8894857600000000E+00 1  0.2708686400000000E+00
         # Potential name:  GTH-PBE-Q5  for symbol:  SB
         # Potential read from the potential filename: GTH_POTENTIALS
       &END POTENTIAL
     &END KIND
     &TOPOLOGY
       NUMBER_OF_ATOMS  4
       MULTIPLE_UNIT_CELL  1 1 1
     &END TOPOLOGY
   &END SUBSYS
 &END FORCE_EVAL
