 # Version information for this restart file 
 # current date 2021-05-24 14:06:17.515
 # current working dir /user/pubo1141/simulations/aiida_tests/cp2k_8.1/geo_opt_medium
 # Program compiled at                             Sun May 23 19:42:40 CEST 2021
 # Program compiled on                                                   hpcl002
 # Program compiled for                                            carl-mkl-ompi
 # Source code revision number                                       git:0b61f2f
 &GLOBAL
   PROJECT_NAME aiida
   RUN_TYPE  GEO_OPT
 &END GLOBAL
 &FORCE_EVAL
   METHOD  QS
   &DFT
     BASIS_SET_FILE_NAME BASIS_MOLOPT
     POTENTIAL_FILE_NAME GTH_POTENTIALS
     &QS
       EPS_DEFAULT     9.9999999999999998E-13
       EXTRAPOLATION  PS
       EXTRAPOLATION_ORDER  3
     &END QS
     &MGRID
       NGRIDS  4
       CUTOFF     2.8000000000000000E+02
       REL_CUTOFF     3.0000000000000000E+01
     &END MGRID
     &XC
       DENSITY_CUTOFF     1.0000000000000000E-10
       GRADIENT_CUTOFF     1.0000000000000000E-10
       TAU_CUTOFF     1.0000000000000000E-10
       &XC_FUNCTIONAL  NO_SHORTCUT
         &PBE  T
         &END PBE
       &END XC_FUNCTIONAL
     &END XC
     &POISSON
       POISSON_SOLVER  MT
       PERIODIC  NONE
     &END POISSON
   &END DFT
   &SUBSYS
     &CELL
       A     4.0000000000000000E+00    0.0000000000000000E+00    0.0000000000000000E+00
       B     0.0000000000000000E+00    4.0000000000000000E+00    0.0000000000000000E+00
       C     0.0000000000000000E+00    0.0000000000000000E+00    4.7371660000000011E+00
       PERIODIC  NONE
       MULTIPLE_UNIT_CELL  1 1 1
     &END CELL
     &COORD
H    2.0000000000001372E+00    2.0000000000001266E+00    2.7290247702949042E+00
H    2.0000000000001701E+00    2.0000000000001532E+00    2.0081412297053269E+00
     &END COORD
     &KIND O
       BASIS_SET DZVP-MOLOPT-SR-GTH
       POTENTIAL GTH-PBE-q6
     &END KIND
     &KIND H
       BASIS_SET DZVP-MOLOPT-SR-GTH
       POTENTIAL GTH-PBE-q1
       &POTENTIAL
 1
  0.2000000000000000E+00 2 -0.4178900440000000E+01  0.7244633100000000E+00
 0
         # Potential name:  GTH-PBE-Q1  for symbol:  H
         # Potential read from the potential filename: GTH_POTENTIALS
       &END POTENTIAL
     &END KIND
     &TOPOLOGY
       COORD_FILE_NAME aiida.coords.xyz
       COORD_FILE_FORMAT  XYZ
       NUMBER_OF_ATOMS  2
       MULTIPLE_UNIT_CELL  1 1 1
     &END TOPOLOGY
   &END SUBSYS
 &END FORCE_EVAL
