&GLOBAL
  PROJECT aiida
  RUN_TYPE MD
  PRINT_LEVEL MEDIUM
&END GLOBAL

&FORCE_EVAL
  METHOD Quickstep
  &DFT
    BASIS_SET_FILE_NAME BASIS_MOLOPT
    POTENTIAL_FILE_NAME GTH_POTENTIALS            

    CHARGE 0
    MULTIPLICITY 1

    &MGRID
       CUTOFF [Ry] 400 
    &END

    &QS
       METHOD GPW 
       EPS_DEFAULT 1.0E-8 
       EXTRAPOLATION ASPC 
    &END

    &POISSON
       PERIODIC XYZ
    &END
    &SCF                              
      SCF_GUESS ATOMIC
      MAX_SCF 30
      EPS_SCF 1.0E-5
      &OT
        PRECONDITIONER FULL_SINGLE_INVERSE
        MINIMIZER DIIS
      &END OT
      &OUTER_SCF
        MAX_SCF 5
        EPS_SCF 1.0E-6
      &END
      &PRINT
        &RESTART OFF
        &END
      &END
    &END SCF

    &XC
      &XC_FUNCTIONAL 
         &PBE
         &END
      &END XC_FUNCTIONAL
      &VDW_POTENTIAL
         POTENTIAL_TYPE PAIR_POTENTIAL 
         &PAIR_POTENTIAL
            PARAMETER_FILE_NAME dftd3.dat
            TYPE DFTD3
            REFERENCE_FUNCTIONAL PBE
            R_CUTOFF [angstrom] 16
         &END
      &END VDW_POTENTIAL
    &END XC
  &END DFT
  &SUBSYS
    &CELL 
      ABC [angstrom] 12.42 12.42 12.42
    &END CELL
    &TOPOLOGY
      COORD_FILE_NAME aiida.coords.xyz
      COORD_FILE_FORMAT XYZ
    &END
    &KIND H                              
      BASIS_SET DZVP-MOLOPT-GTH-q1
      POTENTIAL GTH-PBE-q1             
    &END KIND
    &KIND O
      BASIS_SET DZVP-MOLOPT-GTH-q6
      POTENTIAL GTH-PBE-q6
    &END KIND
  &END SUBSYS
&END FORCE_EVAL
&MOTION
 &MD
   ENSEMBLE NVT
   TEMPERATURE [K] 300
   TIMESTEP [fs] 0.5
   STEPS 5
   &THERMOSTAT
     REGION MASSIVE
     TYPE NOSE
   &END THERMOSTAT
 &END
&END
