 # Version information for this restart file 
 # current date 2022-01-03 14:15:21.477
 # current working dir /user/pubo1141/simulations/aiida_tests/cp2k_8.1/md_nvt_medium
 # Program compiled at                             Thu May 27 13:34:22 CEST 2021
 # Program compiled on                                                   hpcl001
 # Program compiled for                                            carl-mkl-ompi
 # Source code revision number                                       git:0b61f2f
 &GLOBAL
   PRINT_LEVEL  MEDIUM
   PROJECT_NAME aiida
   RUN_TYPE  MD
 &END GLOBAL
 &MOTION
   &MD
     ENSEMBLE  NVT
     STEPS  5
     TIMESTEP     4.9999999999999994E-01
     STEP_START_VAL  5
     TIME_START_VAL     2.4999999999999996E+00
     ECONS_START_VAL    -1.1028095256883862E+03
     TEMPERATURE     3.0000000000000000E+02
     &THERMOSTAT
       TYPE  NOSE
       REGION  MASSIVE
     &END THERMOSTAT
     &AVERAGES  T
       &RESTART_AVERAGES
         ITIMES_START  1
         AVECPU     4.6527029613032937E+01
         AVEHUGONIOT     0.0000000000000000E+00
         AVETEMP_BARO     0.0000000000000000E+00
         AVEPOT    -1.1033662327812301E+03
         AVEKIN     2.8308815512465013E-01
         AVETEMP     3.1038910593743191E+02
         AVEKIN_QM     0.0000000000000000E+00
         AVETEMP_QM     0.0000000000000000E+00
         AVEVOL     1.2928894580884409E+04
         AVECELL_A     2.3470398570439684E+01
         AVECELL_B     2.3470398570439684E+01
         AVECELL_C     2.3470398570439684E+01
         AVEALPHA     9.0000000000000000E+01
         AVEBETA     9.0000000000000000E+01
         AVEGAMMA     9.0000000000000000E+01
         AVE_ECONS    -9.0405797614558955E-02
         AVE_PRESS     0.0000000000000000E+00
         AVE_PXX     0.0000000000000000E+00
       &END RESTART_AVERAGES
     &END AVERAGES
   &END MD
 &END MOTION
 &FORCE_EVAL
   METHOD  QS
   &DFT
     BASIS_SET_FILE_NAME BASIS_MOLOPT
     POTENTIAL_FILE_NAME GTH_POTENTIALS
     MULTIPLICITY  1
     CHARGE  0
     &SCF
       MAX_SCF  30
       EPS_SCF     1.0000000000000001E-05
       SCF_GUESS  ATOMIC
       &OT  T
         MINIMIZER  DIIS
         PRECONDITIONER  FULL_SINGLE_INVERSE
       &END OT
       &OUTER_SCF  T
         EPS_SCF     9.9999999999999995E-07
         MAX_SCF  5
       &END OUTER_SCF
       &PRINT
         &RESTART  OFF
         &END RESTART
       &END PRINT
     &END SCF
     &QS
       EPS_DEFAULT     1.0000000000000000E-08
       EXTRAPOLATION  ASPC
       METHOD  GPW
     &END QS
     &MGRID
       CUTOFF     4.0000000000000000E+02
     &END MGRID
     &XC
       DENSITY_CUTOFF     1.0000000000000000E-10
       GRADIENT_CUTOFF     1.0000000000000000E-10
       TAU_CUTOFF     1.0000000000000000E-10
       &XC_FUNCTIONAL  NO_SHORTCUT
         &PBE  T
         &END PBE
       &END XC_FUNCTIONAL
       &VDW_POTENTIAL
         POTENTIAL_TYPE  PAIR_POTENTIAL
         &PAIR_POTENTIAL
           R_CUTOFF     1.6000000000000000E+01
           TYPE  DFTD3
           PARAMETER_FILE_NAME dftd3.dat
           REFERENCE_FUNCTIONAL PBE
         &END PAIR_POTENTIAL
       &END VDW_POTENTIAL
     &END XC
     &POISSON
       PERIODIC  XYZ
     &END POISSON
   &END DFT
   &SUBSYS
     &CELL
       A     1.2420000000000000E+01    0.0000000000000000E+00    0.0000000000000000E+00
       B     0.0000000000000000E+00    1.2420000000000000E+01    0.0000000000000000E+00
       C     0.0000000000000000E+00    0.0000000000000000E+00    1.2420000000000000E+01
       MULTIPLE_UNIT_CELL  1 1 1
     &END CELL
     &COORD
O    3.8476523449570457E+00   -4.7572858050839839E+00    5.5115245845274572E+00
H    4.1497688750466288E+00   -5.5056491468484383E+00    6.0683847935871329E+00
H    3.0574142856891022E+00   -4.2852793714457178E+00    5.9390440531957722E+00
O   -3.5402253350684596E+00    1.7506229286990920E+00    4.2923541522525177E+00
H   -3.3923308488365098E+00    7.6122192084088802E-01    4.1612148599187098E+00
H   -3.6132926516188326E+00    1.8605078693836847E+00    5.2190171694537035E+00
O    4.5456227369048792E+00    2.9364709654492760E+00   -7.1008090148461775E+00
H    3.6179751341720183E+00    3.2240598201866408E+00   -6.7885720683932869E+00
H    4.5034151434952099E+00    2.8172408121255277E+00   -8.0457501673143614E+00
O   -2.5785360701602196E+00   -1.3225011917192314E-01   -3.4094899453087302E+00
H   -2.0377144059978418E+00    4.1032370952124098E-01   -2.8178529424964203E+00
H   -1.9113812227585032E+00   -6.4750225922129279E-01   -3.9657431797305018E+00
O   -3.7612751781646714E+00   -7.7162625969844774E+00    5.6315818858479627E+00
H   -4.6675601840472822E+00   -7.4669052285251594E+00    5.9330779566098339E+00
H   -3.8356875331248088E+00   -7.5737707145210260E+00    4.5981656360933947E+00
O   -6.7019957337360481E+00   -8.2861220554859547E-02    2.3103323677973937E+00
H   -6.0574628097447274E+00   -4.0113626353051252E-01    2.9842795718338504E+00
H   -6.2720675019408887E+00    7.6721682191593155E-01    1.9953644491113502E+00
O    4.0181391743712798E+00   -5.5759277303593953E+00   -4.2079929936789912E-01
H    3.3115878232581313E+00   -5.6289378425867262E+00    2.7504291294836014E-01
H    3.8885985801956222E+00   -4.6884479194353244E+00   -8.3151281881584571E-01
O   -2.6708576949909073E+00   -3.0839192551300885E+00   -1.2293555948736672E+00
H   -3.2784731009348209E+00   -2.4928517043320877E+00   -1.7005493999628991E+00
H   -2.1136787674197284E+00   -2.5088166924488067E+00   -6.1932268451514882E-01
O    5.4469281151469602E+00   -3.1793901877087802E+00    3.0960552196849411E+00
H    4.6376570933964674E+00   -3.2479162718422256E+00    3.6944993140115443E+00
H    5.2230696006489348E+00   -2.9639622866543029E+00    2.1363158953300800E+00
O    2.0184499198940435E+00    3.8060650714846349E+00   -6.6620655262875941E+00
H    1.3770270881946285E+00    3.0724805897736429E+00   -6.8197760192857242E+00
H    1.8113229813229914E+00    4.0875976326934254E+00   -5.7405793843037252E+00
O    4.0538238544565681E+00   -3.8994257686877747E+00   -3.0621926940400819E+00
H    3.2831921474224472E+00   -3.7755340300300557E+00   -3.6390884461174537E+00
H    4.3321435234711103E+00   -2.9743342065726091E+00   -2.8927125128399362E+00
O    1.9911703732456902E+00   -1.8367531062048594E+00    1.0233832764696749E+00
H    1.6415785666694498E+00   -2.4879456056887053E+00    1.6750237694150449E+00
H    1.6430063990315735E+00   -1.9673461191292225E+00    1.1436041735465249E-01
O    7.2383887176274453E-01   -5.7477507718415861E+00   -5.0089689076247730E+00
H    1.4318282157472257E+00   -6.3710100862529240E+00   -4.8600287924978263E+00
H    4.2543137375774437E-01   -5.7398823571426911E+00   -5.9181545028360487E+00
O   -7.5227084346101361E+00   -8.6742981035856719E+00   -3.2517552226749165E+00
H   -7.8286284817215872E+00   -9.6036261441208239E+00   -3.1089855912072601E+00
H   -7.1226807184418650E+00   -8.4938123683084950E+00   -2.3915267525347992E+00
O    2.9967200156559266E+00   -1.6392410905018924E+00    5.1746010777224836E+00
H    3.8342030212751137E+00   -1.7514749930662579E+00    5.6695194537923594E+00
H    3.2093996997923848E+00   -8.8513093132522447E-01    4.6032000637675363E+00
O   -9.3981066674306196E-02    1.8627605856179219E+00   -6.7010856623757000E+00
H    2.4851356678245481E-01    1.0300354674734917E+00   -6.3180135358249538E+00
H   -7.9108504512258905E-03    1.7256021883189978E+00   -7.6424884312106256E+00
O    1.3949219369907817E+00   -3.0865100270446013E+00    3.6637438783936664E+00
H    2.0118709927544534E+00   -2.6436372138266928E+00    4.2977354609648426E+00
H    1.0859631661237024E+00   -3.9138054749474085E+00    3.9689922570583835E+00
O   -2.3282066405595243E+00    2.7977935219202035E+00    2.2332326540692953E+00
H   -1.6086213624537797E+00    2.1098694689162665E+00    2.1098585646475168E+00
H   -2.7965698486218358E+00    2.5965913802416853E+00    3.0832178048295193E+00
O    8.8204856087088335E-01   -6.5407493951289086E-01   -5.6103944774677332E+00
H    1.7808054571720866E+00   -8.1324037281486738E-01   -6.0954143079315708E+00
H    1.1758966985809007E+00   -2.4051657644855937E-01   -4.7397617571595054E+00
O   -1.1659508185836298E+00   -7.1870873916100553E-01    2.2045955911836929E-01
H   -1.0883294195555349E+00    2.3040193607123213E-01   -6.1035711710599169E-02
H   -9.9175182802150474E-01   -7.6019376872769651E-01    1.1521247065044171E+00
O   -3.8848294046915650E+00   -9.0050432615243317E+00   -3.1129051416291720E+00
H   -4.4951589798980160E+00   -8.2402528898186560E+00   -3.1462578685697440E+00
H   -2.9514136351877149E+00   -8.6631350126532531E+00   -3.1310574144614156E+00
O    4.9788070674496145E+00    4.5789816263372787E+00    2.1732999987436967E+00
H    4.5821871687594173E+00    4.0917957453971816E+00    1.4196794100545893E+00
H    4.1990040773304500E+00    4.9855029389955856E+00    2.6443519348732671E+00
O    4.2125979079902081E+00    1.0320643193078902E+00   -3.2075179558690889E+00
H    4.6109829830419580E+00    9.2892321051861815E-01   -4.1218526723301485E+00
H    4.4390493108605238E+00    1.9775575957015695E-01   -2.6646120146674175E+00
O   -5.2049429059744048E+00   -6.3435776378948461E+00   -2.6938083039228555E+00
H   -5.4127114218263790E+00   -6.0011639282016409E+00   -1.7785273078977966E+00
H   -5.9895092842606479E+00   -6.0787615532548989E+00   -3.2115273884013655E+00
O    4.8297826545057054E+00   -2.1460301274330233E+00    6.9148834614084409E-01
H    5.1654009966324939E+00   -1.3040323033120591E+00    1.1898607007939028E+00
H    3.8455341599818511E+00   -2.0002332379073327E+00    8.3128074694197573E-01
O    2.1233117341287899E+00    9.4619723053582316E-01    1.6988741636283009E+00
H    2.8186775415154539E+00    1.5138894727197751E+00    1.3030530792811179E+00
H    2.3787825058190100E+00    7.7819659130693442E-02    1.3043882201252757E+00
O   -5.7551611465470334E+00   -5.0952218493452950E+00   -3.6631930630263515E-01
H   -6.6280136223405401E+00   -5.4636281708205612E+00   -2.4921708320042243E-01
H   -5.9110110075797975E+00   -4.1636564688781235E+00   -6.3274687694892640E-01
O   -4.8451714031716939E+00    4.6295334585666605E+00    2.6237514891608229E+00
H   -5.8338666198481128E+00    4.7080363053694558E+00    2.3479137323583261E+00
H   -4.7458081160502656E+00    3.7721490593574565E+00    2.2497939500699218E+00
O    5.4878855705818017E+00    8.5034780893509887E-01   -5.6028979824572378E+00
H    6.3743017184711617E+00    1.1349259102087703E+00   -5.4292715072624853E+00
H    5.0537462814947984E+00    1.4711340892446050E+00   -6.2287574403135597E+00
O    7.4203322552735929E-01   -1.9094702528728118E+00   -1.2632027025492676E+00
H    4.4137034539481496E-01   -2.7336832765823162E+00   -1.7944160149765243E+00
H   -4.2908696079470905E-02   -1.6733857432078876E+00   -7.3041999635126686E-01
O    3.8980938339558384E+00    2.6153010043281659E+00    9.9147125366642108E-02
H    4.6403480981778449E+00    2.4145249094266532E+00   -4.7663747629383663E-01
H    3.2891603467417894E+00    3.2296918292348753E+00   -4.2733128908348939E-01
O   -1.0877513901562372E+00   -1.3777923395916001E+00    2.9398761220063223E+00
H   -3.4537839568492834E-01   -2.0215520765893440E+00    3.1568884354793103E+00
H   -1.8639888134400779E+00   -1.9985169512900669E+00    3.1409485824666845E+00
O    2.0638896927987891E+00   -5.6291011757085894E+00    1.3589710299735682E+00
H    1.2241783584131654E+00   -6.1510749855615323E+00    1.2679508744038410E+00
H    2.3326177588319483E+00   -5.9010392283196271E+00    2.2929757835968174E+00
O   -6.3569086027816468E-01   -3.8243248754036339E+00   -2.8366279595406994E+00
H   -1.5662129729812067E+00   -3.7833270203506761E+00   -2.5291166488599983E+00
H   -4.9298200742203691E-01   -4.5871868985511437E+00   -3.4240910833449343E+00
O   -5.2851512109669212E+00    2.0768708245478780E+00    1.4481115858431970E+00
H   -4.4422170889682704E+00    1.9152768632760007E+00    1.8936235989149612E+00
H   -5.1150416755793771E+00    1.9171778267923441E+00    4.0737244013754892E-01
O    1.9669863117946134E+00   -3.4196229492762318E+00   -5.2669059658918709E+00
H    1.3750718858907898E+00   -4.1805080769640233E+00   -5.0353539264655112E+00
H    1.2819814803749827E+00   -2.7503526181906479E+00   -5.5587757658794867E+00
O   -1.1889920589633010E+00    3.9307389053071597E+00   -3.3708834015967661E+00
H   -1.1787154565301687E+00    3.9419830076554128E+00   -4.3411649698330459E+00
H   -7.1845294145303085E-01    4.6814274379308012E+00   -2.9586563662148868E+00
O   -5.4351472245047514E+00   -5.0029878701923165E+00    4.2721509154916006E+00
H   -6.1341561959028974E+00   -4.5172180492450682E+00    3.7438348610109875E+00
H   -4.8014611150820148E+00   -5.3898970282243015E+00    3.6908832263973417E+00
O    2.9745722732030004E+00    5.8010080878297430E+00    3.5990243212730424E+00
H    3.3436117805169663E+00    6.5046387713712814E+00    4.1958504008000901E+00
H    2.4290421504519779E+00    5.1852393010600064E+00    4.1434139300301709E+00
O   -4.0472619461952952E+00    1.5479345625669092E+00   -5.0681202895163295E+00
H   -3.5802922676944080E+00    7.9842284342184555E-01   -4.5877340538628371E+00
H   -4.0205428252835436E+00    2.3137535160455349E+00   -4.4776027916633661E+00
O    3.4766154248638421E+00    5.9361944393509081E-01    4.0095344644104074E+00
H    2.8661401107298734E+00    5.7444569001122159E-01    3.2024647194268492E+00
H    4.3028271425505134E+00    4.3761810507577681E-01    3.5393745881632426E+00
O   -4.6151927577920615E+00   -1.0200372537611790E+00    3.9979255354638261E+00
H   -5.3499961071482129E+00   -1.2503060327898194E+00    4.6822322626442237E+00
H   -4.1870833766621880E+00   -1.9226608080820216E+00    3.7843979120418498E+00
O   -2.1567122495701896E-01    1.2745000876647270E+00    3.1331105884015815E+00
H    6.7635956277769527E-01    1.3931430519330279E+00    2.7218210449620766E+00
H   -4.1944694327971377E-01    2.8540357909495084E-01    3.0672267493637482E+00
O   -1.9871618532263393E+00    5.0471641083507066E+00    5.9072481891130035E-01
H   -2.2950991526758280E+00    4.1788806370792537E+00    9.8617600529463390E-01
H   -2.6184585947802241E+00    5.7603568381610888E+00    7.7989576221771495E-01
O   -1.2975881417306869E+00   -1.8959862203527615E+00   -4.9488676293755285E+00
H   -8.4447962645442076E-01   -2.4260000461612585E+00   -4.2026563070401659E+00
H   -5.1753501843375649E-01   -1.3190541366490114E+00   -5.4058824529297009E+00
O   -5.1474696587115458E+00    1.8163602675674315E+00   -1.2949290984396016E+00
H   -4.6896927580946954E+00    2.4822427272935252E+00   -1.8862938400148634E+00
H   -5.3630314051646844E+00    1.1054334265095529E+00   -1.9187615885832181E+00
O   -7.3725434742879523E+00   -1.2310127856406896E+00   -1.9463011288180108E+00
H   -6.4119126325068807E+00   -1.1004746924922002E+00   -2.1520263421252852E+00
H   -7.4688554267794158E+00   -1.5237200531109183E+00   -9.9634737929825379E-01
O   -4.6255626947360107E-01    1.4130274566735324E+00   -1.7108565841573997E+00
H   -7.8643554080035938E-01    2.1962037671321695E+00   -2.1750997913423289E+00
H    2.6310886007775025E-01    9.6355335386834806E-01   -2.2298453468219597E+00
O   -3.7631700678174299E-02   -6.5074356495994223E+00   -1.0950836222099005E+00
H    9.8611690372165522E-03   -5.5508987336300031E+00   -1.1092574073611758E+00
H   -8.2215615804536424E-01   -6.7760983077920285E+00   -4.1315389335005959E-01
O    5.7092953168076317E+00   -1.6930826194698985E+00    6.0203052268440143E+00
H    6.0008777991717448E+00   -2.4972487317504823E+00    6.4746994926580657E+00
H    5.7439407743610706E+00   -9.4493709210768362E-01    6.6246631099002773E+00
O   -2.6041076458987549E+00   -5.7826158332352637E+00   -4.2098624993982394E+00
H   -2.6171910552276509E+00   -6.6894846050515939E+00   -4.5501195654889983E+00
H   -3.5116730731288790E+00   -5.4989318627693597E+00   -3.8835192493213917E+00
O   -4.9429946891799377E+00   -1.4023936323826882E+00   -3.2393776540056591E+00
H   -4.9684997748230471E+00   -2.2666220860033945E+00   -3.7719727180941680E+00
H   -4.0141724213104313E+00   -1.0704405747991133E+00   -3.2380430366836341E+00
O    2.2895911045899409E+00   -8.0798070753155642E+00   -1.2247156520413227E+00
H    1.2856438639152015E+00   -8.1069476688888109E+00   -1.1243076406328456E+00
H    2.5362593229358810E+00   -7.1181913378789261E+00   -1.1713415255753548E+00
O    6.7772676934842675E+00   -3.8953014887073474E+00   -5.3356045359031326E+00
H    7.6152664451632575E+00   -4.1737054778427867E+00   -5.8350922533495586E+00
H    6.0291766242349958E+00   -4.4270201087655083E+00   -5.6850555948126367E+00
O   -3.4356171039259720E-01    4.9716797630947429E+00    2.9576523493804983E+00
H   -6.6110926145608062E-01    4.2334406802270479E+00    3.4704273464959643E+00
H   -7.2136220206298529E-01    4.8440026843339599E+00    2.0571830811296028E+00
O   -2.8150516805287302E+00   -3.9995836216161256E+00    6.2244319342278018E+00
H   -2.4306786593801561E+00   -4.5870032088842612E+00    6.9104099631806664E+00
H   -2.4092687081264321E+00   -3.1557886888084519E+00    6.3980625027961091E+00
O   -2.7965980948775910E+00   -3.4832106743804423E+00    3.4713732603641652E+00
H   -3.0913923244758332E+00   -3.8818847039104600E+00    4.2789501870483297E+00
H   -3.2323225283814874E+00   -4.0479081706502296E+00    2.8242419017606797E+00
O    2.4871837245327870E+00    4.6840691935262866E+00   -3.9634428257599206E+00
H    3.3977920886867081E+00    4.5378401690628163E+00   -3.6105312751832530E+00
H    1.9752092419755654E+00    4.5646399046260946E+00   -3.0919996844416548E+00
O    1.6536854515617259E+00    5.4820618014464230E-02   -3.1023547997480341E+00
H    1.6049118720593709E+00   -5.9146989847130627E-01   -2.3646874318393376E+00
H    2.4635680801735966E+00    5.6108543631792251E-01   -3.0510933207563458E+00
O   -1.2128596315819082E+00   -8.1736108386126389E+00   -6.3553779594308253E+00
H   -8.9701002960672482E-01   -9.0549708078445938E+00   -6.5665804200111983E+00
H   -2.1546148637622800E+00   -8.0407590797834434E+00   -6.5301191355941697E+00
O   -4.6762851948538675E-01    8.3701641440729038E+00    6.0210616779600934E-01
H    3.3708755245952238E-01    8.2868070139897885E+00    1.1589118664265134E+00
H   -1.2126860260781469E+00    8.0371558675147075E+00    1.1271839674367463E+00
O    5.8900381761713625E+00   -6.7862394276443609E+00   -6.6126980627013232E+00
H    5.4363292295434622E+00   -7.5720762871661904E+00   -6.9478539003222162E+00
H    6.1310034891222154E+00   -6.1526391986164093E+00   -7.3565409001071878E+00
O   -3.5556832836197061E-01   -5.2572702952809314E+00    4.6698016653860348E+00
H   -3.7629095652460637E-01   -6.0985178307570447E+00    4.0714635577627085E+00
H   -1.2809813191994890E+00   -5.1437750820949635E+00    4.9671452953012372E+00
O   -3.8179546017830832E+00   -5.5296910459424291E+00    1.7936571244063078E+00
H   -4.0725918834717003E+00   -6.4204998325705445E+00    2.1294647572842225E+00
H   -4.3943224119084769E+00   -5.2907483180560932E+00    1.0079043582547520E+00
     &END COORD
     &VELOCITY
          -2.0012457712448523E-04   -7.9571378318094829E-05    2.9984680828997047E-05
          -1.2494326912776297E-03    1.1976358492795157E-03    1.2820396974122952E-03
          -4.4581629913797066E-04    4.0460429825131734E-04    6.8472233715085717E-04
           1.0549626125064518E-04    7.3251624079935374E-05    2.4124410733685817E-05
          -8.3822967140158582E-04   -1.2966589415713912E-03    3.2445663630919938E-04
          -1.9014667384430574E-04   -1.4497319833494747E-03    2.8895298388705268E-05
          -4.2753793585112389E-04    6.2048125743597988E-05    4.5688621903410802E-05
          -9.3824598421905542E-04   -2.3104760137700937E-04    2.9482832751735279E-05
          -1.0942714411564988E-06    4.4090542283133706E-04   -7.4329891284330668E-04
          -1.0360820733665216E-04   -5.0481769401700041E-04    6.7921451399187888E-05
           4.2370666798405494E-04    4.1257605661515706E-04    8.7174139320890596E-04
          -6.7007680068825357E-04   -7.8640944270293861E-04   -7.7067966684065032E-04
           1.8778953027538439E-05   -8.2502210952891783E-05   -1.0697408281532068E-05
          -7.2986779279468833E-04   -8.5038040261899367E-04   -1.0345005587392353E-03
           2.0557612458710405E-04    8.6712430126215350E-04   -4.0570711131695203E-05
           2.0269724881914668E-04   -1.2591047107039839E-04   -1.1454838594752245E-04
          -3.2505219900217823E-04    9.2265653149604216E-04   -7.5986178499460395E-04
          -2.3979482916337136E-04    5.8319215315260416E-04    6.3751357015296350E-04
           1.4167735835258894E-04    8.5198169300197525E-05   -1.5080597830295623E-04
          -5.0020291846244547E-04   -2.0188259888088685E-04   -3.8674864928604785E-04
          -4.2863288677229933E-04    1.4758026323197948E-03   -2.7018917688903521E-04
          -3.5182620898843953E-05   -5.2582012812776555E-05   -7.9424172303719107E-05
          -4.3295584940015997E-04   -7.7297278965765201E-04    9.5087227751454689E-04
           1.3198930820427499E-03    1.7779016945778502E-03   -8.5954129901242497E-04
          -1.8825441256671029E-04   -2.0092650417458520E-04   -7.4859477718396060E-05
          -8.4524694295682289E-04    9.8994922670493348E-05    9.4961113327729193E-04
          -8.7648124133721532E-04    1.4698840724170141E-03    5.6799906674651936E-04
           1.9318639542677862E-04    7.3837554489090160E-05   -3.2883599375897846E-04
          -2.0727729023369682E-04   -6.5245698911646591E-05   -2.2077806430712880E-04
          -2.6692541353004397E-04    3.7201678378693745E-04   -5.1265235452615696E-04
          -1.6997503659437873E-04   -1.2601929953769651E-04   -7.0846008300786591E-05
           1.3284692510403828E-03   -1.1566855222472610E-03    1.2963541455555628E-03
           1.8358417317554219E-04    5.5717266203395835E-04    1.8297220106327505E-03
           2.8854906012290734E-04    1.5942968516235523E-04    2.3883452977098405E-05
           1.4641944034357803E-03   -2.3219002347208128E-04    3.9384548615901613E-04
           1.8791161586227792E-04   -1.2764448551120639E-03    9.4096533122446527E-04
          -2.2278965238519468E-04   -2.3363024497709023E-05    6.9919417658345848E-05
          -1.8711046744440227E-04   -1.4133671376250849E-03   -6.8892105078421310E-04
          -6.1361323356604969E-04   -8.3018614212927819E-04   -2.7898898822772272E-04
          -1.2103101466226703E-04    5.0136547235839802E-05   -2.5304864453735011E-04
           8.0833887502711655E-04   -1.4567722240257076E-04   -7.8573167136302237E-04
           3.9169095423299176E-04    1.8949800229277575E-03   -6.4986933576107017E-04
          -2.5356535920413966E-04   -3.8567965555480000E-04    1.1959049949297355E-04
          -1.6054445759167547E-04    8.4415838961778640E-04   -3.5436954308733074E-04
           9.5749286765060523E-04   -3.8734843031340045E-04   -5.2143405988270056E-04
           1.5836997963395561E-05    2.9523539023304790E-05   -2.2762706719193877E-04
           3.3713582175896753E-04   -1.0214867359718105E-03    3.0843748080071267E-04
           6.6848039721483627E-04   -5.5696762203252782E-04   -9.7655063770854349E-04
           2.7581393130416868E-04   -2.3954433423358562E-05    9.9829319619498534E-06
           2.1507978189189400E-04    6.0158302101400124E-04   -2.0309802615295513E-04
          -6.2815201554766687E-04    6.6585856446352585E-05    2.9269218672928340E-04
           1.5161557404197368E-05   -1.4235920621568309E-04   -7.3358069965862217E-05
           2.9174676131007704E-05   -1.2451239915091996E-04   -1.0954389365179964E-03
          -6.4081887137007487E-04    6.7521798800338151E-05    2.4767619726073558E-04
           1.9368049307271810E-04    1.5527226759327068E-04   -2.0611599133591474E-04
           5.6212934508048954E-04   -1.8580641156900390E-05    2.9051806435492853E-04
          -4.5662686315381390E-04   -2.8489762092969811E-04    3.8613082686123036E-04
           3.7219316506155491E-04   -1.4784597716489489E-05   -4.8709689120339473E-04
           8.7855513279455437E-04   -5.7150845509369524E-04    2.8094706820475736E-04
          -1.0255424660590964E-03    3.3142812866959086E-04   -9.2119866948717910E-05
           3.5140057238542389E-05    1.1592927265202872E-04    3.4254716574393969E-04
          -6.0730937613940525E-05    1.3101058555642924E-03    1.3054244301537140E-03
          -7.1455406609641074E-04    1.2949623539260855E-03   -4.5191230724706249E-05
          -1.2443961593512001E-05    3.9489497657046747E-04    2.3540490481218612E-04
           1.5807396013849868E-04    1.5255011939725694E-04   -5.6022801045366719E-04
          -4.8180592013816792E-06    1.4884287331332513E-03   -4.8909186297398837E-04
           8.1484251228369862E-05    3.7523203178106778E-05    1.4211934071429059E-04
          -4.6294118383325516E-05    1.3499501394731587E-03   -1.4359121912941245E-03
           3.6949290660389798E-04    3.7037136336616255E-04    1.1894572821678866E-03
           1.1723794725851657E-04    2.5595055888115904E-05   -2.5822562056504217E-04
          -5.1149166338563352E-04    1.7717807972425484E-03    1.3155325531124913E-04
          -5.5915549479550479E-05    2.7700843169368950E-04   -1.2984843823745408E-03
           4.4386936310382219E-05    8.7063179976730652E-05   -8.4051975115478854E-05
           1.5854446272971443E-04    1.4196030955396779E-03    4.1423559077744329E-04
          -8.2568262858893492E-04    1.3066522898379737E-05    7.3550083365115607E-04
           2.8249492069660500E-04    9.2696998733167343E-05    4.1579831376400770E-05
           1.1918530574615157E-03    5.2545375675078600E-04    6.4107147578777463E-04
           7.7831368080231544E-04   -4.0489896401149953E-04    2.1577512948227752E-04
           1.0325188633582704E-04   -8.3728802017966900E-07   -9.3386763048901913E-05
           2.6655655317164032E-04   -5.8591436857992492E-04    1.4192059672935028E-04
           5.0056872195169359E-04    1.9022373351887967E-04    1.1291542687166369E-03
           5.7710316645354347E-05   -8.1844361356532531E-05   -1.5849162918320166E-04
          -4.0579703918164947E-05   -1.7009555939312510E-04    1.1201631343734400E-04
           7.0935852562501323E-04    1.6057848093656581E-03   -8.1897947343486377E-05
          -5.2160952407197909E-04   -7.1201826659049059E-05   -1.8851119885219736E-04
           5.4257466146619333E-04   -6.1295098108596249E-04   -1.4755575385131492E-03
           6.8558528648831707E-04    3.7940100453807274E-04    1.0546636553471361E-03
           1.2899360670380109E-04    1.1106803603311189E-04    1.1994798277270907E-04
           2.4970357440391125E-04   -7.1161487561557674E-04    1.2905617084066744E-03
          -7.8944834913926177E-04   -3.6580046230809101E-04    3.4135177229679096E-04
          -6.8838767690481599E-05   -1.0369498284494505E-04    3.1476816140865076E-04
          -8.2012046150331861E-05   -1.5696848866636584E-04    5.1175461423895827E-05
          -1.3006397561688703E-03   -4.2439327326772780E-04    6.6945482093900980E-04
           2.2999165746293894E-04   -2.1781942443195793E-04   -1.6224474513320105E-04
          -4.4588258655310663E-04    8.2724303898414270E-04    8.2051859978130926E-04
          -3.7518428226348067E-05    2.7845248719873339E-04   -1.2953431873688253E-03
          -1.9169399717231742E-04    3.7486959523474317E-04   -6.9992392668130314E-05
           9.7214328390415362E-04    1.7102071337509572E-05    1.3908836263586989E-04
          -2.2137475272172961E-03   -3.1843396269169618E-04    5.8546214141583209E-04
          -1.1041600877151456E-04    9.8884907036578832E-05    1.7847012480333934E-04
          -4.3223671288987497E-04   -2.0326555856333930E-04    1.2693811996592386E-03
           2.9218609475505655E-04   -5.3018668419840560E-04   -7.8162333054593042E-04
           1.0844601108270048E-04    2.6088180358915699E-04    1.5167688449023884E-04
           6.1067149763934490E-04    4.9994756570348768E-04   -1.4540386520896573E-04
           2.3519481803050164E-04    1.3666702452810525E-04    9.3240281757539739E-04
           9.7745865468473262E-05    8.7412045360277962E-05    5.7124791662644894E-06
           1.3065039188830368E-03    4.5807819179563114E-04    3.4682790493744943E-05
           6.7525659825069719E-05    4.5479579582066173E-04   -1.0414496140489966E-03
           5.1513662530032090E-05   -1.6073161167137461E-04    8.1740915682110187E-05
           7.2568715983972265E-04   -4.0565812723289369E-04   -2.1635588630762462E-04
           5.6294653498536865E-04    1.0902849211268249E-03   -3.7027803577736857E-04
          -2.3526215601749425E-04    1.4131862067404848E-05   -5.5707413719596126E-05
          -9.1006796102953094E-05    1.7694856742045989E-04   -1.0010344156653646E-03
          -7.5597653501217963E-04   -9.8656260003436537E-04   -7.6812896816877006E-04
           1.9411335055250723E-05    1.1176161679631375E-04   -9.1148713093451084E-05
          -1.4034400800149638E-03    7.0841834656970332E-04    7.7150966300489965E-04
          -2.0896131649742028E-04   -1.1956019593622748E-04   -1.5221265634644252E-03
           6.5935860704148712E-05    3.2424613754950461E-05   -1.0698695693617044E-04
          -1.0019835743244458E-03    6.8916365166970335E-04    4.5694085011188212E-04
           3.2716449205376699E-04   -8.1613456752122862E-04   -7.7660856883015933E-04
          -1.8100090109059608E-04   -1.2376049261034525E-04   -3.3336986997983296E-05
           1.6497958373144293E-03    9.4818056825429699E-04   -7.8873221695201440E-04
           9.4340390223619688E-05    3.5969721455494729E-04    1.7734882537373017E-03
           8.4534627298654699E-05   -1.9001750154123262E-04   -1.1469232292009369E-04
           4.0088034049407873E-04   -5.8248282805013432E-05    8.4863638883474961E-04
           2.0347535913504234E-04   -1.0840058043118454E-04   -9.9458107137540973E-04
          -3.8990732586419382E-06   -2.4364648749451528E-05    3.0696113151609133E-04
           9.9833561275889716E-04   -4.9592275350631820E-04   -4.6238838784216229E-04