!!! Generated by AiiDA !!!
&FORCE_EVAL
   &DFT
      BASIS_SET_FILE_NAME BASIS_MOLOPT_UCL
      BASIS_SET_FILE_NAME BASIS_MOLOPT
      &KPOINTS
         SCHEME MONKHORST-PACK 5 7 3
      &END KPOINTS
      &MGRID
         CUTOFF 500.0
         NGRIDS 4
         REL_CUTOFF 70.0
      &END MGRID
      &POISSON
         PERIODIC XYZ
         POISSON_SOLVER PERIODIC
      &END POISSON
      POTENTIAL_FILE_NAME scan_pseudopotentials
      &QS
         EPS_DEFAULT 1e-12
         EXTRAPOLATION USE_PREV_P
      &END QS
      ROKS .FALSE.
      &SCF
         ADDED_MOS 25
         EPS_SCF 5e-07
         MAX_SCF 75
         &MIXING
            ALPHA 0.3
            BETA 0.5
            METHOD BROYDEN_MIXING
            NBUFFER 4
         &END MIXING
         SCF_GUESS ATOMIC
      &END SCF
      UKS .FALSE.
      &XC
         &XC_FUNCTIONAL
            &LIBXC
               FUNCTIONAL MGGA_X_SCAN
            &END LIBXC
            &LIBXC
               FUNCTIONAL MGGA_C_SCAN
            &END LIBXC
         &END XC_FUNCTIONAL
      &END XC
   &END DFT
   METHOD Quickstep
   STRESS_TENSOR ANALYTICAL
   &SUBSYS
      &CELL
         A 7.5433671102327 0.0             0.0            
         B 0.0             5.1363977611425 0.0            
         C 0.0             0.0             10.557111731846
         PERIODIC XYZ
      &END CELL
      &KIND Cs
         BASIS_SET TZV2P-MOLOPT-SR-GTH
         POTENTIAL GTH-SCAN-q9
      &END KIND
      &KIND Sb
         BASIS_SET TZV2P-MOLOPT-SR-GTH
         POTENTIAL GTH-SCAN-q5
      &END KIND
      &TOPOLOGY
         COORD_FILE_FORMAT XYZ
         COORD_FILE_NAME aiida.coords.xyz
      &END TOPOLOGY
   &END SUBSYS
&END FORCE_EVAL
&GLOBAL
   PROJECT aiida
   RUN_TYPE CELL_OPT
&END GLOBAL
&MOTION
   &CELL_OPT
      &BFGS
         TRUST_RADIUS 0.15
      &END BFGS
      EPS_SYMMETRY 1e-05
      KEEP_SPACE_GROUP .TRUE.
      MAX_FORCE 0.00019
      MAX_ITER 150
      OPTIMIZER BFGS
      TYPE DIRECT_CELL_OPT
   &END CELL_OPT
&END MOTION