lattice_vector 9.824681 0.000000 0.000000
lattice_vector -4.912340 8.508423 0.000000
lattice_vector 0.000000 0.000000 8.523803

atom -0.000000 1.418071 0.000000 C
atom 1.228085 0.709035 0.000000 C
atom -1.228085 3.545176 0.000000 C
atom 0.000000 2.836141 0.000000 C
atom -2.456170 5.672282 0.000000 C
atom -1.228085 4.963247 0.000000 C
atom -3.684255 7.799388 0.000000 C
atom -2.456170 7.090353 0.000000 C
atom 2.456170 1.418071 0.000000 C
atom 3.684255 0.709035 0.000000 C
atom 1.228085 3.545176 0.000000 C
atom 2.456170 2.836141 0.000000 C
atom -0.000000 5.672282 0.000000 C
atom 1.228085 4.963247 0.000000 C
atom -1.228085 7.799388 0.000000 C
atom 0.000000 7.090353 0.000000 C
atom 4.912340 1.418071 0.000000 C
atom 6.140425 0.709035 0.000000 C
atom 3.684255 3.545176 0.000000 C
atom 4.912340 2.836141 0.000000 C
atom 2.456170 5.672282 0.000000 C
atom 3.684255 4.963247 0.000000 C
atom 1.228085 7.799388 0.000000 C
atom 2.456170 7.090353 0.000000 C
atom 7.368510 1.418071 0.000000 C
atom 8.596596 0.709035 0.000000 C
atom 6.140425 3.545176 0.000000 C
atom 7.368510 2.836141 0.000000 C
atom 4.912340 5.672282 0.000000 C
atom 6.140425 4.963247 0.000000 C
atom 3.684255 7.799388 0.000000 C
atom 4.912340 7.090353 0.000000 C
