 # Version information for this restart file 
 # current date 2024-07-07 15:39:03.776
 # current working dir /scratch-grete/usr/nichdsas/test_parser/cp2k-2024.1/md_nvt_medium
 # Program compiled at                                       2024-05-28 17:35:28
 # Program compiled on                                                          
 # Program compiled for                                                   x86_64
 # Source code revision number                                                  
 &GLOBAL
   PRINT_LEVEL MEDIUM
   PROJECT_NAME "aiida"
   RUN_TYPE MD
 &END GLOBAL
 &MOTION
   &MD
     ENSEMBLE NVT
     STEPS 5
     TIMESTEP  4.9999999999999994E-001
     STEP_START_VAL 5
     TIME_START_VAL  2.4999999999999996E+000
     ECONS_START_VAL -1.1028095256884490E+003
     TEMPERATURE  3.0000000000000000E+002
     &THERMOSTAT
       TYPE NOSE
       REGION MASSIVE
     &END THERMOSTAT
     &AVERAGES T
       &RESTART_AVERAGES
         ITIMES_START 1
         AVECPU  9.6370492521265980E+000
         AVEHUGONIOT  0.0000000000000000E+000
         AVETEMP_BARO  0.0000000000000000E+000
         AVEPOT -1.1033662327812965E+003
         AVEKIN  2.8308815512455704E-001
         AVETEMP  3.1038910593732976E+002
         AVEKIN_QM  0.0000000000000000E+000
         AVETEMP_QM  0.0000000000000000E+000
         AVEVOL  1.2928894580884409E+004
         AVECELL_A  2.3470398570439684E+001
         AVECELL_B  2.3470398570439684E+001
         AVECELL_C  2.3470398570439684E+001
         AVEALPHA  9.0000000000000000E+001
         AVEBETA  9.0000000000000000E+001
         AVEGAMMA  9.0000000000000000E+001
         AVE_ECONS -9.0405807112947462E-002
         AVE_PRESS  0.0000000000000000E+000
         AVE_PXX  0.0000000000000000E+000
       &END RESTART_AVERAGES
     &END AVERAGES
   &END MD
 &END MOTION
 &FORCE_EVAL
   METHOD QS
   &DFT
     BASIS_SET_FILE_NAME BASIS_MOLOPT
     POTENTIAL_FILE_NAME GTH_POTENTIALS
     MULTIPLICITY 1
     CHARGE 0
     &SCF
       MAX_SCF 30
       EPS_SCF  1.0000000000000001E-005
       SCF_GUESS ATOMIC
       IGNORE_CONVERGENCE_FAILURE T
       &OT T
         MINIMIZER DIIS
         PRECONDITIONER FULL_SINGLE_INVERSE
       &END OT
       &OUTER_SCF T
         EPS_SCF  9.9999999999999995E-007
         MAX_SCF 5
       &END OUTER_SCF
       &PRINT
         &RESTART OFF
         &END RESTART
       &END PRINT
     &END SCF
     &QS
       EPS_DEFAULT  1.0000000000000000E-008
       EXTRAPOLATION ASPC
       METHOD GPW
     &END QS
     &MGRID
       CUTOFF  4.0000000000000000E+002
     &END MGRID
     &XC
       DENSITY_CUTOFF  1.0000000000000000E-010
       GRADIENT_CUTOFF  1.0000000000000000E-010
       TAU_CUTOFF  1.0000000000000000E-010
       &XC_FUNCTIONAL NO_SHORTCUT
         &PBE T
         &END PBE
       &END XC_FUNCTIONAL
       &VDW_POTENTIAL
         POTENTIAL_TYPE PAIR_POTENTIAL
         &PAIR_POTENTIAL
           R_CUTOFF  1.6000000000000000E+001
           TYPE DFTD3
           PARAMETER_FILE_NAME dftd3.dat
           REFERENCE_FUNCTIONAL "PBE"
         &END PAIR_POTENTIAL
       &END VDW_POTENTIAL
     &END XC
     &POISSON
       PERIODIC XYZ
     &END POISSON
   &END DFT
   &SUBSYS
     &CELL
       A  1.2420000000000000E+001  0.0000000000000000E+000  0.0000000000000000E+000
       B  0.0000000000000000E+000  1.2420000000000000E+001  0.0000000000000000E+000
       C  0.0000000000000000E+000  0.0000000000000000E+000  1.2420000000000000E+001
       MULTIPLE_UNIT_CELL 1 1 1
     &END CELL
     &COORD
       O  3.8476523449571123E+000 -4.7572858050839546E+000  5.5115245845274767E+000
       H  4.1497688750467425E+000 -5.5056491468484241E+000  6.0683847935870450E+000
       H  3.0574142856891551E+000 -4.2852793714456974E+000  5.9390440531958122E+000
       O -3.5402253350684849E+000  1.7506229286990214E+000  4.2923541522524946E+000
       H -3.3923308488365973E+000  7.6122192084084572E-001  4.1612148599187373E+000
       H -3.6132926516188193E+000  1.8605078693837649E+000  5.2190171694537639E+000
       O  4.5456227369049049E+000  2.9364709654492809E+000 -7.1008090148461989E+000
       H  3.6179751341721222E+000  3.2240598201866164E+000 -6.7885720683933597E+000
       H  4.5034151434952845E+000  2.8172408121255956E+000 -8.0457501673143650E+000
       O -2.5785360701602484E+000 -1.3225011917193596E-001 -3.4094899453087093E+000
       H -2.0377144059978929E+000  4.1032370952125524E-001 -2.8178529424964234E+000
       H -1.9113812227585447E+000 -6.4750225922129756E-001 -3.9657431797304730E+000
       O -3.7612751781647003E+000 -7.7162625969845582E+000  5.6315818858479574E+000
       H -4.6675601840473382E+000 -7.4669052285251674E+000  5.9330779566098428E+000
       H -3.8356875331247604E+000 -7.5737707145210846E+000  4.5981656360934027E+000
       O -6.7019957337359388E+000 -8.2861220554712109E-002  2.3103323677972885E+000
       H -6.0574628097447851E+000 -4.0113626353006704E-001  2.9842795718341457E+000
       H -6.2720675019408159E+000  7.6721682191582663E-001  1.9953644491113722E+000
       O  4.0181391743713064E+000 -5.5759277303593526E+000 -4.2079929936792365E-001
       H  3.3115878232581886E+000 -5.6289378425867582E+000  2.7504291294838173E-001
       H  3.8885985801956631E+000 -4.6884479194353865E+000 -8.3151281881583261E-001
       O -2.6708576949909331E+000 -3.0839192551300618E+000 -1.2293555948736719E+000
       H -3.2784731009348751E+000 -2.4928517043320637E+000 -1.7005493999628776E+000
       H -2.1136787674197621E+000 -2.5088166924488675E+000 -6.1932268451512817E-001
       O  5.4469281151470765E+000 -3.1793901877087976E+000  3.0960552196850495E+000
       H  4.6376570933965118E+000 -3.2479162718423802E+000  3.6944993140113831E+000
       H  5.2230696006489632E+000 -2.9639622866542972E+000  2.1363158953303469E+000
       O  2.0184499198940511E+000  3.8060650714846536E+000 -6.6620655262876012E+000
       H  1.3770270881946498E+000  3.0724805897736558E+000 -6.8197760192857082E+000
       H  1.8113229813229739E+000  4.0875976326934014E+000 -5.7405793843037083E+000
       O  4.0538238544566187E+000 -3.8994257686877534E+000 -3.0621926940400250E+000
       H  3.2831921474224979E+000 -3.7755340300300437E+000 -3.6390884461175292E+000
       H  4.3321435234711609E+000 -2.9743342065726561E+000 -2.8927125128400064E+000
       O  1.9911703732456920E+000 -1.8367531062048386E+000  1.0233832764696520E+000
       H  1.6415785666694516E+000 -2.4879456056886626E+000  1.6750237694150674E+000
       H  1.6430063990315751E+000 -1.9673461191292334E+000  1.1436041735467059E-001
       O  7.2383887176274198E-001 -5.7477507718415870E+000 -5.0089689076247721E+000
       H  1.4318282157472302E+000 -6.3710100862529364E+000 -4.8600287924978200E+000
       H  4.2543137375775009E-001 -5.7398823571426920E+000 -5.9181545028360460E+000
       O -7.5227084346099913E+000 -8.6742981035856204E+000 -3.2517552226750572E+000
       H -7.8286284817215064E+000 -9.6036261441206818E+000 -3.1089855912073610E+000
       H -7.1226807184418721E+000 -8.4938123683083493E+000 -2.3915267525347685E+000
       O  2.9967200156559355E+000 -1.6392410905018666E+000  5.1746010777225155E+000
       H  3.8342030212752052E+000 -1.7514749930662519E+000  5.6695194537923514E+000
       H  3.2093996997923955E+000 -8.8513093132518939E-001  4.6032000637673960E+000
       O -9.3981066674306279E-002  1.8627605856179184E+000 -6.7010856623756991E+000
       H  2.4851356678245659E-001  1.0300354674734953E+000 -6.3180135358249592E+000
       H -7.9108504512288205E-003  1.7256021883189996E+000 -7.6424884312106229E+000
       O  1.3949219369907964E+000 -3.0865100270445955E+000  3.6637438783936584E+000
       H  2.0118709927544760E+000 -2.6436372138266901E+000  4.2977354609648275E+000
       H  1.0859631661237084E+000 -3.9138054749474032E+000  3.9689922570583596E+000
       O -2.3282066405595367E+000  2.7977935219202053E+000  2.2332326540692948E+000
       H -1.6086213624537957E+000  2.1098694689162749E+000  2.1098585646475168E+000
       H -2.7965698486218988E+000  2.5965913802415876E+000  3.0832178048295300E+000
       O  8.8204856087087846E-001 -6.5407493951289097E-001 -5.6103944774677315E+000
       H  1.7808054571721066E+000 -8.1324037281487105E-001 -6.0954143079316134E+000
       H  1.1758966985808998E+000 -2.4051657644856816E-001 -4.7397617571595196E+000
       O -1.1659508185836658E+000 -7.1870873916100642E-001  2.2045955911836987E-001
       H -1.0883294195555500E+000  2.3040193607122447E-001 -6.1035711710604873E-002
       H -9.9175182802152984E-001 -7.6019376872769517E-001  1.1521247065044213E+000
       O -3.8848294046916139E+000 -9.0050432615243388E+000 -3.1129051416291489E+000
       H -4.4951589798980676E+000 -8.2402528898188194E+000 -3.1462578685698119E+000
       H -2.9514136351878228E+000 -8.6631350126532904E+000 -3.1310574144614467E+000
       O  4.9788070674497451E+000  4.5789816263372227E+000  2.1732999987436963E+000
       H  4.5821871687594955E+000  4.0917957453971026E+000  1.4196794100544123E+000
       H  4.1990040773305592E+000  4.9855029389955314E+000  2.6443519348732041E+000
       O  4.2125979079902374E+000  1.0320643193079519E+000 -3.2075179558690214E+000
       H  4.6109829830420699E+000  9.2892321051861126E-001 -4.1218526723301387E+000
       H  4.4390493108605789E+000  1.9775575957021002E-001 -2.6646120146673198E+000
       O -5.2049429059744057E+000 -6.3435776378949154E+000 -2.6938083039228946E+000
       H -5.4127114218264012E+000 -6.0011639282017235E+000 -1.7785273078979400E+000
       H -5.9895092842606399E+000 -6.0787615532548198E+000 -3.2115273884013882E+000
       O  4.8297826545058156E+000 -2.1460301274331335E+000  6.9148834614081900E-001
       H  5.1654009966326031E+000 -1.3040323033120913E+000  1.1898607007938382E+000
       H  3.8455341599819142E+000 -2.0002332379073771E+000  8.3128074694201204E-001
       O  2.1233117341287913E+000  9.4619723053581417E-001  1.6988741636282998E+000
       H  2.8186775415154557E+000  1.5138894727197942E+000  1.3030530792811128E+000
       H  2.3787825058190153E+000  7.7819659130712260E-002  1.3043882201252941E+000
       O -5.7551611465470520E+000 -5.0952218493453687E+000 -3.6631930630238291E-001
       H -6.6280136223405108E+000 -5.4636281708206935E+000 -2.4921708320056782E-001
       H -5.9110110075797877E+000 -4.1636564688783002E+000 -6.3274687694898835E-001
       O -4.8451714031716779E+000  4.6295334585666188E+000  2.6237514891609677E+000
       H -5.8338666198480951E+000  4.7080363053695962E+000  2.3479137323581840E+000
       H -4.7458081160502399E+000  3.7721490593574125E+000  2.2497939500698911E+000
       O  5.4878855705818745E+000  8.5034780893516082E-001 -5.6028979824573968E+000
       H  6.3743017184711874E+000  1.1349259102086753E+000 -5.4292715072625697E+000
       H  5.0537462814948348E+000  1.4711340892448150E+000 -6.2287574403135944E+000
       O  7.4203322552736717E-001 -1.9094702528728120E+000 -1.2632027025492707E+000
       H  4.4137034539481323E-001 -2.7336832765823158E+000 -1.7944160149765265E+000
       H -4.2908696079473063E-002 -1.6733857432078947E+000 -7.3041999635127086E-001
       O  3.8980938339558886E+000  2.6153010043282703E+000  9.9147125366513170E-002
       H  4.6403480981779008E+000  2.4145249094265973E+000 -4.7663747629381759E-001
       H  3.2891603467418244E+000  3.2296918292348691E+000 -4.2733128908356471E-001
       O -1.0877513901562315E+000 -1.3777923395916085E+000  2.9398761220063152E+000
       H -3.4537839568494061E-001 -2.0215520765893449E+000  3.1568884354793081E+000
       H -1.8639888134401157E+000 -1.9985169512900762E+000  3.1409485824666783E+000
       O  2.0638896927987953E+000 -5.6291011757085823E+000  1.3589710299735223E+000
       H  1.2241783584131636E+000 -6.1510749855615456E+000  1.2679508744038535E+000
       H  2.3326177588319670E+000 -5.9010392283195925E+000  2.2929757835968836E+000
       O -6.3569086027817556E-001 -3.8243248754036347E+000 -2.8366279595407016E+000
       H -1.5662129729812382E+000 -3.7833270203506562E+000 -2.5291166488599708E+000
       H -4.9298200742203874E-001 -4.5871868985511384E+000 -3.4240910833449361E+000
       O -5.2851512109669345E+000  2.0768708245480139E+000  1.4481115858432168E+000
       H -4.4422170889683636E+000  1.9152768632761059E+000  1.8936235989150672E+000
       H -5.1150416755793886E+000  1.9171778267921757E+000  4.0737244013754270E-001
       O  1.9669863117946247E+000 -3.4196229492762327E+000 -5.2669059658918691E+000
       H  1.3750718858907989E+000 -4.1805080769640144E+000 -5.0353539264655316E+000
       H  1.2819814803749818E+000 -2.7503526181906670E+000 -5.5587757658794841E+000
       O -1.1889920589633556E+000  3.9307389053071491E+000 -3.3708834015967670E+000
       H -1.1787154565301978E+000  3.9419830076554137E+000 -4.3411649698330308E+000
       H -7.1845294145304583E-001  4.6814274379307941E+000 -2.9586563662148948E+000
       O -5.4351472245047594E+000 -5.0029878701923396E+000  4.2721509154917472E+000
       H -6.1341561959028761E+000 -4.5172180492452529E+000  3.7438348610105900E+000
       H -4.8014611150820423E+000 -5.3898970282243610E+000  3.6908832263974158E+000
       O  2.9745722732030107E+000  5.8010080878297083E+000  3.5990243212730397E+000
       H  3.3436117805169898E+000  6.5046387713713338E+000  4.1958504008001274E+000
       H  2.4290421504519957E+000  5.1852393010600579E+000  4.1434139300301887E+000
       O -4.0472619461952997E+000  1.5479345625669203E+000 -5.0681202895162496E+000
       H -3.5802922676943956E+000  7.9842284342184222E-001 -4.5877340538627882E+000
       H -4.0205428252834920E+000  2.3137535160455656E+000 -4.4776027916633057E+000
       O  3.4766154248639318E+000  5.9361944393506172E-001  4.0095344644104003E+000
       H  2.8661401107298738E+000  5.7444569001116408E-001  3.2024647194268958E+000
       H  4.3028271425506066E+000  4.3761810507559196E-001  3.5393745881632706E+000
       O -4.6151927577920695E+000 -1.0200372537614297E+000  3.9979255354638497E+000
       H -5.3499961071482973E+000 -1.2503060327899449E+000  4.6822322626441748E+000
       H -4.1870833766621498E+000 -1.9226608080819667E+000  3.7843979120418125E+000
       O -2.1567122495703187E-001  1.2745000876647272E+000  3.1331105884015793E+000
       H  6.7635956277770626E-001  1.3931430519330283E+000  2.7218210449620774E+000
       H -4.1944694327972676E-001  2.8540357909495712E-001  3.0672267493637455E+000
       O -1.9871618532263728E+000  5.0471641083507146E+000  5.9072481891127804E-001
       H -2.2950991526758893E+000  4.1788806370792413E+000  9.8617600529456939E-001
       H -2.6184585947802357E+000  5.7603568381611758E+000  7.7989576221775125E-001
       O -1.2975881417307353E+000 -1.8959862203527649E+000 -4.9488676293755223E+000
       H -8.4447962645445362E-001 -2.4260000461612559E+000 -4.2026563070401659E+000
       H -5.1753501843375460E-001 -1.3190541366490087E+000 -5.4058824529296974E+000
       O -5.1474696587115094E+000  1.8163602675673474E+000 -1.2949290984394668E+000
       H -4.6896927580947017E+000  2.4822427272933121E+000 -1.8862938400147156E+000
       H -5.3630314051647021E+000  1.1054334265096282E+000 -1.9187615885832867E+000
       O -7.3725434742878351E+000 -1.2310127856406738E+000 -1.9463011288178225E+000
       H -6.4119126325068505E+000 -1.1004746924920283E+000 -2.1520263421257160E+000
       H -7.4688554267793608E+000 -1.5237200531108164E+000 -9.9634737929803197E-001
       O -4.6255626947361522E-001  1.4130274566735359E+000 -1.7108565841574002E+000
       H -7.8643554080037947E-001  2.1962037671321770E+000 -2.1750997913423271E+000
       H  2.6310886007775142E-001  9.6355335386835139E-001 -2.2298453468219614E+000
       O -3.7631700678172182E-002 -6.5074356495994170E+000 -1.0950836222098999E+000
       H  9.8611690372130308E-003 -5.5508987336300049E+000 -1.1092574073611747E+000
       H -8.2215615804538722E-001 -6.7760983077920365E+000 -4.1315389335005920E-001
       O  5.7092953168077063E+000 -1.6930826194698507E+000  6.0203052268441004E+000
       H  6.0008777991717643E+000 -2.4972487317509229E+000  6.4746994926580568E+000
       H  5.7439407743611701E+000 -9.4493709210745269E-001  6.6246631099001059E+000
       O -2.6041076458987691E+000 -5.7826158332352753E+000 -4.2098624993981923E+000
       H -2.6171910552276638E+000 -6.6894846050515238E+000 -4.5501195654889770E+000
       H -3.5116730731288572E+000 -5.4989318627693748E+000 -3.8835192493213708E+000
       O -4.9429946891799492E+000 -1.4023936323824717E+000 -3.2393776540057373E+000
       H -4.9684997748230133E+000 -2.2666220860031241E+000 -3.7719727180941720E+000
       H -4.0141724213104251E+000 -1.0704405747990833E+000 -3.2380430366836546E+000
       O  2.2895911045899333E+000 -8.0798070753155606E+000 -1.2247156520413442E+000
       H  1.2856438639152119E+000 -8.1069476688888127E+000 -1.1243076406328441E+000
       H  2.5362593229358859E+000 -7.1181913378789039E+000 -1.1713415255753989E+000
       O  6.7772676934842657E+000 -3.8953014887071378E+000 -5.3356045359030659E+000
       H  7.6152664451632344E+000 -4.1737054778426605E+000 -5.8350922533497211E+000
       H  6.0291766242350544E+000 -4.4270201087656105E+000 -5.6850555948126669E+000
       O -3.4356171039261352E-001  4.9716797630947402E+000  2.9576523493804987E+000
       H -6.6110926145608506E-001  4.2334406802270435E+000  3.4704273464959616E+000
       H -7.2136220206299606E-001  4.8440026843339634E+000  2.0571830811296041E+000
       O -2.8150516805287289E+000 -3.9995836216161282E+000  6.2244319342278276E+000
       H -2.4306786593802050E+000 -4.5870032088842585E+000  6.9104099631806353E+000
       H -2.4092687081264956E+000 -3.1557886888084514E+000  6.3980625027960869E+000
       O -2.7965980948775915E+000 -3.4832106743804720E+000  3.4713732603642105E+000
       H -3.0913923244758936E+000 -3.8818847039106505E+000  4.2789501870483262E+000
       H -3.2323225283815611E+000 -4.0479081706502500E+000  2.8242419017607068E+000
       O  2.4871837245327986E+000  4.6840691935262653E+000 -3.9634428257599357E+000
       H  3.3977920886867845E+000  4.5378401690626751E+000 -3.6105312751833645E+000
       H  1.9752092419755851E+000  4.5646399046261052E+000 -3.0919996844416704E+000
       O  1.6536854515617117E+000  5.4820618014466756E-002 -3.1023547997480501E+000
       H  1.6049118720593682E+000 -5.9146989847131459E-001 -2.3646874318393576E+000
       H  2.4635680801736375E+000  5.6108543631787255E-001 -3.0510933207563986E+000
       O -1.2128596315819560E+000 -8.1736108386126425E+000 -6.3553779594308288E+000
       H -8.9701002960674825E-001 -9.0549708078445743E+000 -6.5665804200111992E+000
       H -2.1546148637623457E+000 -8.0407590797834416E+000 -6.5301191355941937E+000
       O -4.6762851948539780E-001  8.3701641440729055E+000  6.0210616779600867E-001
       H  3.3708755245952293E-001  8.2868070139897867E+000  1.1589118664265134E+000
       H -1.2126860260781891E+000  8.0371558675147128E+000  1.1271839674367261E+000
       O  5.8900381761714753E+000 -6.7862394276443325E+000 -6.6126980627013525E+000
       H  5.4363292295434977E+000 -7.5720762871660474E+000 -6.9478539003220741E+000
       H  6.1310034891222758E+000 -6.1526391986164937E+000 -7.3565409001072597E+000
       O -3.5556832836198576E-001 -5.2572702952809367E+000  4.6698016653860357E+000
       H -3.7629095652461836E-001 -6.0985178307570438E+000  4.0714635577627130E+000
       H -1.2809813191995334E+000 -5.1437750820949732E+000  4.9671452953012354E+000
       O -3.8179546017830912E+000 -5.5296910459424620E+000  1.7936571244063431E+000
       H -4.0725918834717598E+000 -6.4204998325706093E+000  2.1294647572842935E+000
       H -4.3943224119084983E+000 -5.2907483180562043E+000  1.0079043582546865E+000
     &END COORD
     &VELOCITY
        -2.0012457712227221E-004 -7.9571378317526545E-005  2.9984680829195507E-005
        -1.2494326912729471E-003  1.1976358492798752E-003  1.2820396974112104E-003
        -4.4581629913620157E-004  4.0460429825205519E-004  6.8472233715131210E-004
         1.0549626124893033E-004  7.3251624078124147E-005  2.4124410733524674E-005
        -8.3822967140434717E-004 -1.2966589415713014E-003  3.2445663631070344E-004
        -1.9014667384382826E-004 -1.4497319833485028E-003  2.8895298387352015E-005
        -4.2753793584991397E-004  6.2048125745535999E-005  4.5688621902489108E-005
        -9.3824598421585843E-004 -2.3104760137784865E-004  2.9482832750091120E-005
        -1.0942714384009545E-006  4.4090542283343673E-004 -7.4329891284552680E-004
        -1.0360820733741629E-004 -5.0481769401764496E-004  6.7921451400118269E-005
         4.2370666798240755E-004  4.1257605661508079E-004  8.7174139320897329E-004
        -6.7007680068976029E-004 -7.8640944270261508E-004 -7.7067966683925691E-004
         1.8778953026367972E-005 -8.2502210955846654E-005 -1.0697408282078811E-005
        -7.2986779279576820E-004 -8.5038040261884774E-004 -1.0345005587405346E-003
         2.0557612458837302E-004  8.6712430126000895E-004 -4.0570711131017895E-005
         2.0269724882310099E-004 -1.2591047106646014E-004 -1.1454838595222697E-004
        -3.2505219900496701E-004  9.2265653150630197E-004 -7.5986178499196360E-004
        -2.3979482916011442E-004  5.8319215315637198E-004  6.3751357015557556E-004
         1.4167735835401697E-004  8.5198169301557697E-005 -1.5080597830353253E-004
        -5.0020291846052892E-004 -2.0188259888434954E-004 -3.8674864928633847E-004
        -4.2863288677165006E-004  1.4758026323208834E-003 -2.7018917688962193E-004
        -3.5182620899952705E-005 -5.2582012811290724E-005 -7.9424172303940786E-005
        -4.3295584940240784E-004 -7.7297278965717236E-004  9.5087227751622122E-004
         1.3198930820414779E-003  1.7779016945763488E-003 -8.5954129901121836E-004
        -1.8825441256350992E-004 -2.0092650417224414E-004 -7.4859477712463374E-005
        -8.4524694295471400E-004  9.8994922664015131E-005  9.4961113327506454E-004
        -8.7648124133586853E-004  1.4698840724140748E-003  5.6799906675318959E-004
         1.9318639542679607E-004  7.3837554489715039E-005 -3.2883599375908634E-004
        -2.0727729023291782E-004 -6.5245698911304526E-005 -2.2077806430674299E-004
        -2.6692541353036240E-004  3.7201678378597484E-004 -5.1265235452562560E-004
        -1.6997503659290199E-004 -1.2601929953794577E-004 -7.0846008298745052E-005
         1.3284692510428908E-003 -1.1566855222467814E-003  1.2963541455543394E-003
         1.8358417317811555E-004  5.5717266203169160E-004  1.8297220106322052E-003
         2.8854906012309116E-004  1.5942968516325436E-004  2.3883452975994027E-005
         1.4641944034359383E-003 -2.3219002347059134E-004  3.9384548615945669E-004
         1.8791161586215012E-004 -1.2764448551124484E-003  9.4096533122508641E-004
        -2.2278965238517492E-004 -2.3363024497723331E-005  6.9919417658360620E-005
        -1.8711046744428151E-004 -1.4133671376253074E-003 -6.8892105078369658E-004
        -6.1361323356593108E-004 -8.3018614212926225E-004 -2.7898898822758920E-004
        -1.2103101465669455E-004  5.0136547238532723E-005 -2.5304864453785768E-004
         8.0833887502955155E-004 -1.4567722240246535E-004 -7.8573167136525301E-004
         3.9169095423223824E-004  1.8949800229262773E-003 -6.4986933576279460E-004
        -2.5356535920396885E-004 -3.8567965555307530E-004  1.1959049949480438E-004
        -1.6054445758806711E-004  8.4415838961639830E-004 -3.5436954308765687E-004
         9.5749286765082662E-004 -3.8734843031407450E-004 -5.2143405988559896E-004
         1.5836997963401504E-005  2.9523539023248587E-005 -2.2762706719192438E-004
         3.3713582175908750E-004 -1.0214867359718495E-003  3.0843748080063433E-004
         6.6848039721471549E-004 -5.5696762203250147E-004 -9.7655063770846890E-004
         2.7581393130460334E-004 -2.3954433423327666E-005  9.9829319619057670E-006
         2.1507978189304688E-004  6.0158302101478512E-004 -2.0309802615271999E-004
        -6.2815201554756528E-004  6.6585856446687902E-005  2.9269218672851454E-004
         1.5161557403436941E-005 -1.4235920621580821E-004 -7.3358069965944250E-005
         2.9174676130455615E-005 -1.2451239915033877E-004 -1.0954389365184641E-003
        -6.4081887137191487E-004  6.7521798796786115E-005  2.4767619726074404E-004
         1.9368049307249042E-004  1.5527226759325813E-004 -2.0611599133589791E-004
         5.6212934508132427E-004 -1.8580641156748558E-005  2.9051806435348112E-004
        -4.5662686315373248E-004 -2.8489762092974034E-004  3.8613082686095903E-004
         3.7219316506015721E-004 -1.4784597716519255E-005 -4.8709689120360257E-004
         8.7855513279404013E-004 -5.7150845509383662E-004  2.8094706820468792E-004
        -1.0255424660599269E-003  3.3142812866955411E-004 -9.2119866948711865E-005
         3.5140057237555135E-005  1.1592927265027004E-004  3.4254716574459319E-004
        -6.0730937616182655E-005  1.3101058555604163E-003  1.3054244301525513E-003
        -7.1455406610008358E-004  1.2949623539262056E-003 -4.5191230726167902E-005
        -1.2443961589060582E-005  3.9489497656724229E-004  2.3540490481196408E-004
         1.5807396014140231E-004  1.5255011939619597E-004 -5.6022801045828047E-004
        -4.8180591974454425E-006  1.4884287331315799E-003 -4.8909186297728629E-004
         8.1484251229799057E-005  3.7523203179354458E-005  1.4211934071798436E-004
        -4.6294118380035844E-005  1.3499501394693143E-003 -1.4359121912932160E-003
         3.6949290660608943E-004  3.7037136337155310E-004  1.1894572821674026E-003
         1.1723794725918937E-004  2.5595055888505552E-005 -2.5822562056344997E-004
        -5.1149166338665972E-004  1.7717807972384713E-003  1.3155325530758881E-004
        -5.5915549479417766E-005  2.7700843169552804E-004 -1.2984843823733744E-003
         4.4386936314194504E-005  8.7063179974016718E-005 -8.4051975114718977E-005
         1.5854446273313826E-004  1.4196030955349215E-003  4.1423559077747755E-004
        -8.2568262858576222E-004  1.3066522897432434E-005  7.3550083364906779E-004
         2.8249492069625166E-004  9.2696998733358149E-005  4.1579831375973140E-005
         1.1918530574611195E-003  5.2545375675061893E-004  6.4107147578784413E-004
         7.7831368080202932E-004 -4.0489896401151238E-004  2.1577512948167237E-004
         1.0325188633542696E-004 -8.3728802066938406E-007 -9.3386763041359417E-005
         2.6655655317268977E-004 -5.8591436858441124E-004  1.4192059672403184E-004
         5.0056872195184310E-004  1.9022373351225622E-004  1.1291542687150483E-003
         5.7710316645737240E-005 -8.1844361357670021E-005 -1.5849162918009298E-004
        -4.0579703917288376E-005 -1.7009555938837803E-004  1.1201631343425444E-004
         7.0935852562685800E-004  1.6057848093655094E-003 -8.1897947344875539E-005
        -5.2160952406948900E-004 -7.1201826659329963E-005 -1.8851119885664671E-004
         5.4257466146680677E-004 -6.1295098109030461E-004 -1.4755575385145784E-003
         6.8558528649042411E-004  3.7940100454475679E-004  1.0546636553471881E-003
         1.2899360670398354E-004  1.1106803603314302E-004  1.1994798277259251E-004
         2.4970357440382278E-004 -7.1161487561549987E-004  1.2905617084066311E-003
        -7.8944834913927304E-004 -3.6580046230830188E-004  3.4135177229653997E-004
        -6.8838767688058435E-005 -1.0369498284238253E-004  3.1476816140591938E-004
        -8.2012046147873581E-005 -1.5696848866639642E-004  5.1175461423480476E-005
        -1.3006397561678565E-003 -4.2439327326797055E-004  6.6945482093521455E-004
         2.2999165746312591E-004 -2.1781942443235372E-004 -1.6224474513353669E-004
        -4.4588258655352448E-004  8.2724303898400620E-004  8.2051859978127348E-004
        -3.7518428227420797E-005  2.7845248719834389E-004 -1.2953431873689700E-003
        -1.9169399717209511E-004  3.7486959523505521E-004 -6.9992392669490446E-005
         9.7214328390427018E-004  1.7102071336999032E-005  1.3908836263628577E-004
        -2.2137475272172645E-003 -3.1843396269029799E-004  5.8546214141666606E-004
        -1.1041600877195619E-004  9.8884907036545506E-005  1.7847012480332026E-004
        -4.3223671289073685E-004 -2.0326555856276519E-004  1.2693811996607283E-003
         2.9218609475496890E-004 -5.3018668419820112E-004 -7.8162333054600762E-004
         1.0844601108286713E-004  2.6088180359128436E-004  1.5167688449261587E-004
         6.1067149763607473E-004  4.9994756570387636E-004 -1.4540386520715972E-004
         2.3519481803063814E-004  1.3666702452914714E-004  9.3240281757351240E-004
         9.7745865469130532E-005  8.7412045360137246E-005  5.7124791663759200E-006
         1.3065039188834096E-003  4.5807819179611539E-004  3.4682790493002969E-005
         6.7525659825015889E-005  4.5479579582023054E-004 -1.0414496140492978E-003
         5.1513662528147584E-005 -1.6073161167153070E-004  8.1740915681828607E-005
         7.2568715983853415E-004 -4.0565812723293869E-004 -2.1635588630724729E-004
         5.6294653498474827E-004  1.0902849211262267E-003 -3.7027803577773443E-004
        -2.3526215601781078E-004  1.4131862067795650E-005 -5.5707413712640298E-005
        -9.1006796100724408E-005  1.7694856741330020E-004 -1.0010344156865497E-003
        -7.5597653501290941E-004 -9.8656260004063184E-004 -7.6812896816499498E-004
         1.9411335055692366E-005  1.1176161679606097E-004 -9.1148713094068456E-005
        -1.4034400800140307E-003  7.0841834657072150E-004  7.7150966300379247E-004
        -2.0896131649723317E-004 -1.1956019593564651E-004 -1.5221265634631342E-003
         6.5935860704057856E-005  3.2424613754606172E-005 -1.0698695693430152E-004
        -1.0019835743244802E-003  6.8916365166930545E-004  4.5694085011369344E-004
         3.2716449205558629E-004 -8.1613456751968851E-004 -7.7660856882869706E-004
        -1.8100090108766573E-004 -1.2376049261250129E-004 -3.3336986998885834E-005
         1.6497958373149584E-003  9.4818056825231875E-004 -7.8873221695100826E-004
         9.4340390226872593E-005  3.5969721455102676E-004  1.7734882537414054E-003
         8.4534627298261445E-005 -1.9001750154792698E-004 -1.1469232292285918E-004