 # Version information for this restart file 
 # current date 2025-02-11 11:39:07.346
 # current working dir /mnt/lustre-grete/usr/u12591/cp2k_parser_tests/cp2k-2025.1/md_nvt_medium
 # Program compiled at                              Tue Jan  7 11:11:50 CET 2025
 # Program compiled on                                                  glogin11
 # Program compiled for                                                    local
 # Source code revision number                                       git:9635df4
 &GLOBAL
   PRINT_LEVEL MEDIUM
   PROJECT_NAME "aiida"
   RUN_TYPE MD
 &END GLOBAL
 &MOTION
   &MD
     ENSEMBLE NVT
     STEPS 5
     TIMESTEP  4.9999999999999994E-001
     STEP_START_VAL 5
     TIME_START_VAL  2.4999999999999996E+000
     ECONS_START_VAL -1.1028095256884490E+003
     TEMPERATURE  3.0000000000000000E+002
     &THERMOSTAT
       TYPE NOSE
       REGION MASSIVE
     &END THERMOSTAT
     &AVERAGES T
       &RESTART_AVERAGES
         ITIMES_START 1
         AVECPU  1.0096385510459731E+001
         AVEHUGONIOT  0.0000000000000000E+000
         AVETEMP_BARO  0.0000000000000000E+000
         AVEPOT -1.1033662327813838E+003
         AVEKIN  2.8308815545237070E-001
         AVETEMP  3.1038910629675775E+002
         AVEKIN_QM  0.0000000000000000E+000
         AVETEMP_QM  0.0000000000000000E+000
         AVEVOL  1.2928894580884409E+004
         AVECELL_A  2.3470398570439684E+001
         AVECELL_B  2.3470398570439684E+001
         AVECELL_C  2.3470398570439684E+001
         AVEALPHA  9.0000000000000000E+001
         AVEBETA  9.0000000000000000E+001
         AVEGAMMA  9.0000000000000000E+001
         AVE_ECONS -9.0405422839560212E-002
         AVE_PRESS  0.0000000000000000E+000
         AVE_PXX  0.0000000000000000E+000
       &END RESTART_AVERAGES
     &END AVERAGES
   &END MD
 &END MOTION
 &FORCE_EVAL
   METHOD QS
   &DFT
     BASIS_SET_FILE_NAME BASIS_MOLOPT
     POTENTIAL_FILE_NAME GTH_POTENTIALS
     MULTIPLICITY 1
     CHARGE 0
     &SCF
       MAX_SCF 30
       EPS_SCF  1.0000000000000001E-005
       SCF_GUESS ATOMIC
       IGNORE_CONVERGENCE_FAILURE T
       &OT T
         MINIMIZER DIIS
         PRECONDITIONER FULL_SINGLE_INVERSE
       &END OT
       &OUTER_SCF T
         EPS_SCF  9.9999999999999995E-007
         MAX_SCF 5
       &END OUTER_SCF
       &PRINT
         &RESTART OFF
         &END RESTART
       &END PRINT
     &END SCF
     &QS
       EPS_DEFAULT  1.0000000000000000E-008
       EXTRAPOLATION ASPC
       METHOD GPW
     &END QS
     &MGRID
       CUTOFF  4.0000000000000000E+002
     &END MGRID
     &XC
       DENSITY_CUTOFF  1.0000000000000000E-010
       GRADIENT_CUTOFF  1.0000000000000000E-010
       TAU_CUTOFF  1.0000000000000000E-010
       &XC_FUNCTIONAL NO_SHORTCUT
         &PBE T
         &END PBE
       &END XC_FUNCTIONAL
       &VDW_POTENTIAL
         POTENTIAL_TYPE PAIR_POTENTIAL
         &PAIR_POTENTIAL
           R_CUTOFF  1.6000000000000000E+001
           TYPE DFTD3
           PARAMETER_FILE_NAME dftd3.dat
           REFERENCE_FUNCTIONAL "PBE"
         &END PAIR_POTENTIAL
       &END VDW_POTENTIAL
     &END XC
     &POISSON
       PERIODIC XYZ
     &END POISSON
   &END DFT
   &SUBSYS
     &CELL
       A  1.2420000000000000E+001  0.0000000000000000E+000  0.0000000000000000E+000
       B  0.0000000000000000E+000  1.2420000000000000E+001  0.0000000000000000E+000
       C  0.0000000000000000E+000  0.0000000000000000E+000  1.2420000000000000E+001
       MULTIPLE_UNIT_CELL 1 1 1
     &END CELL
     &COORD
       O  3.8476523448822517E+000 -4.7572858051089115E+000  5.5115245845581402E+000
       H  4.1497688746925272E+000 -5.5056491469706508E+000  6.0683847939107052E+000
       H  3.0574142857623303E+000 -4.2852793710403745E+000  5.9390440535880185E+000
       O -3.5402253350878699E+000  1.7506229286457320E+000  4.2923541522709936E+000
       H -3.3923308490221515E+000  7.6122192099198382E-001  4.1612148595991298E+000
       H -3.6132926512652421E+000  1.8605078693702342E+000  5.2190171694885912E+000
       O  4.5456227369386841E+000  2.9364709654326200E+000 -7.1008090148705882E+000
       H  3.6179751341929727E+000  3.2240598202041988E+000 -6.7885720683465234E+000
       H  4.5034151435396579E+000  2.8172408111895098E+000 -8.0457501676454690E+000
       O -2.5785360701508138E+000 -1.3225011916855428E-001 -3.4094899452899465E+000
       H -2.0377144061500077E+000  4.1032371007002982E-001 -2.8178529425187229E+000
       H -1.9113812224982538E+000 -6.4750225955927276E-001 -3.9657431794519860E+000
       O -3.7612751781292424E+000 -7.7162625969305259E+000  5.6315818858462237E+000
       H -4.6675601830004876E+000 -7.4669052289066036E+000  5.9330779569307905E+000
       H -3.8356875330262272E+000 -7.5737707141842163E+000  4.5981656357227845E+000
       O -6.7019957338320619E+000 -8.2861220542791977E-002  2.3103323678144481E+000
       H -6.0574628094857514E+000 -4.0113626324918511E-001  2.9842795719933832E+000
       H -6.2720675019833410E+000  7.6721682216992038E-001  1.9953644488363773E+000
       O  4.0181391743623935E+000 -5.5759277303582993E+000 -4.2079929938161631E-001
       H  3.3115878231393396E+000 -5.6289378424638521E+000  2.7504291282972110E-001
       H  3.8885985801371477E+000 -4.6884479194685813E+000 -8.3151281884680117E-001
       O -2.6708576949866898E+000 -3.0839192551391537E+000 -1.2293555949051431E+000
       H -3.2784731008538266E+000 -2.4928517043862182E+000 -1.7005494000133066E+000
       H -2.1136787674058395E+000 -2.5088166924741797E+000 -6.1932268445816840E-001
       O  5.4469281151043809E+000 -3.1793901877478219E+000  3.0960552197056090E+000
       H  4.6376570934707555E+000 -3.2479162714733714E+000  3.6944993138858364E+000
       H  5.2230696006052826E+000 -2.9639622868197026E+000  2.1363158950823711E+000
       O  2.0184499199097856E+000  3.8060650715010360E+000 -6.6620655262833433E+000
       H  1.3770270883288871E+000  3.0724805897653575E+000 -6.8197760196274713E+000
       H  1.8113229813285026E+000  4.0875976327635399E+000 -5.7405793843469057E+000
       O  4.0538238544651088E+000 -3.8994257686758860E+000 -3.0621926940603710E+000
       H  3.2831921475049040E+000 -3.7755340297918414E+000 -3.6390884458817063E+000
       H  4.3321435242071473E+000 -2.9743342066010690E+000 -2.8927125129415678E+000
       O  1.9911703732713870E+000 -1.8367531062081905E+000  1.0233832764483839E+000
       H  1.6415785663600424E+000 -2.4879456054546965E+000  1.6750237693345968E+000
       H  1.6430063990177712E+000 -1.9673461191416313E+000  1.1436041737752763E-001
       O  7.2383887173286177E-001 -5.7477507718470173E+000 -5.0089689076692379E+000
       H  1.4318282154575590E+000 -6.3710100862060859E+000 -4.8600287930411730E+000
       H  4.2543137341743875E-001 -5.7398823571444488E+000 -5.9181545027726674E+000
       O -7.5227084346126674E+000 -8.6742981036161648E+000 -3.2517552226872453E+000
       H -7.8286284817126992E+000 -9.6036261441472650E+000 -3.1089855912446223E+000
       H -7.1226807184991836E+000 -8.4938123682007411E+000 -2.3915267524769903E+000
       O  2.9967200156398102E+000 -1.6392410904818031E+000  5.1746010777081706E+000
       H  3.8342030213339586E+000 -1.7514749931191655E+000  5.6695194538212732E+000
       H  3.2093997003879018E+000 -8.8513093132673615E-001  4.6032000632614238E+000
       O -9.3981066712868155E-002  1.8627605856171934E+000 -6.7010856623941821E+000
       H  2.4851356659347859E-001  1.0300354675650654E+000 -6.3180135355607714E+000
       H -7.9108509881979285E-003  1.7256021883982362E+000 -7.6424884316457753E+000
       O  1.3949219369781534E+000 -3.0865100270657688E+000  3.6637438784173497E+000
       H  2.0118709925604206E+000 -2.6436372138900919E+000  4.2977354608817349E+000
       H  1.0859631654521600E+000 -3.9138054744960500E+000  3.9689922565514957E+000
       O -2.3282066405370823E+000  2.7977935218828058E+000  2.2332326540694702E+000
       H -1.6086213625218997E+000  2.1098694686011306E+000  2.1098585647307226E+000
       H -2.7965698484370933E+000  2.5965913804994591E+000  3.0832178048231458E+000
       O  8.8204856087022898E-001 -6.5407493953065865E-001 -5.6103944774467003E+000
       H  1.7808054571335967E+000 -8.1324037321239095E-001 -6.0954143083858776E+000
       H  1.1758966987338559E+000 -2.4051657635492107E-001 -4.7397617569238566E+000
       O -1.1659508185294063E+000 -7.1870873919966283E-001  2.2045955911237339E-001
       H -1.0883294195704398E+000  2.3040193611933074E-001 -6.1035711717627388E-002
       H -9.9175182770568682E-001 -7.6019376847375431E-001  1.1521247063480020E+000
       O -3.8848294046978906E+000 -9.0050432614929381E+000 -3.1129051416316069E+000
       H -4.4951589798576164E+000 -8.2402528897845215E+000 -3.1462578687580613E+000
       H -2.9514136349445597E+000 -8.6631350128303435E+000 -3.1310574145850985E+000
       O  4.9788070674707683E+000  4.5789816263528342E+000  2.1732999987413884E+000
       H  4.5821871683393924E+000  4.0917957452324307E+000  1.4196794093321889E+000
       H  4.1990040774347985E+000  4.9855029392343440E+000  2.6443519349537246E+000
       O  4.2125979079803910E+000  1.0320643192943917E+000 -3.2075179559180556E+000
       H  4.6109829832961893E+000  9.2892321038824277E-001 -4.1218526725838442E+000
       H  4.4390493111590290E+000  1.9775576004088538E-001 -2.6646120144327523E+000
       O -5.2049429059587435E+000 -6.3435776379117943E+000 -2.6938083039396443E+000
       H -5.4127114217307435E+000 -6.0011639284743925E+000 -1.7785273081094830E+000
       H -5.9895092839017696E+000 -6.0787615535326287E+000 -3.2115273888368949E+000
       O  4.8297826544868387E+000 -2.1460301274510756E+000  6.9148834614973242E-001
       H  5.1654009965972483E+000 -1.3040323031871468E+000  1.1898607009237705E+000
       H  3.8455341596688664E+000 -2.0002332377147041E+000  8.3128074698524279E-001
       O  2.1233117341309820E+000  9.4619723048951232E-001  1.6988741636411544E+000
       H  2.8186775415375398E+000  1.5138894726504706E+000  1.3030530795877167E+000
       H  2.3787825060104129E+000  7.7819658915619885E-002  1.3043882200799328E+000
       O -5.7551611465406065E+000 -5.0952218493282180E+000 -3.6631930627310411E-001
       H -6.6280136224628423E+000 -5.4636281707069179E+000 -2.4921708277005819E-001
       H -5.9110110071052890E+000 -4.1636564687650228E+000 -6.3274687651916217E-001
       O -4.8451714031844313E+000  4.6295334585532446E+000  2.6237514891682356E+000
       H -5.8338666198986804E+000  4.7080363054772327E+000  2.3479137326196322E+000
       H -4.7458081155777387E+000  3.7721490595327856E+000  2.2497939499044843E+000
       O  5.4878855706034306E+000  8.5034780892699235E-001 -5.6028979824760121E+000
       H  6.3743017186654463E+000  1.1349259100179518E+000 -5.4292715068541213E+000
       H  5.0537462818156724E+000  1.4711340892620821E+000 -6.2287574401101340E+000
       O  7.4203322557317275E-001 -1.9094702528806788E+000 -1.2632027025831447E+000
       H  4.4137034534626990E-001 -2.7336832765995203E+000 -1.7944160153189586E+000
       H -4.2908696102637145E-002 -1.6733857431784944E+000 -7.3041999628702170E-001
       O  3.8980938339596283E+000  2.6153010042929745E+000  9.9147125385132734E-002
       H  4.6403480981383369E+000  2.4145249096404333E+000 -4.7663747565561770E-001
       H  3.2891603468300343E+000  3.2296918293228294E+000 -4.2733128930075276E-001
       O -1.0877513900929632E+000 -1.3777923396431655E+000  2.9398761220103391E+000
       H -3.4537839554990618E-001 -2.0215520770806226E+000  3.1568884357949814E+000
       H -1.8639888131889921E+000 -1.9985169514743129E+000  3.1409485823025571E+000
       O  2.0638896927608044E+000 -5.6291011757198870E+000  1.3589710299531945E+000
       H  1.2241783583073473E+000 -6.1510749854852858E+000  1.2679508745529307E+000
       H  2.3326177586867520E+000 -5.9010392281762618E+000  2.2929757837814728E+000
       O -6.3569086026855126E-001 -3.8243248753558379E+000 -2.8366279595754333E+000
       H -1.5662129730017262E+000 -3.7833270203010159E+000 -2.5291166490104469E+000
       H -4.9298200747574383E-001 -4.5871868983912565E+000 -3.4240910832819740E+000
       O -5.2851512109360446E+000  2.0768708245469658E+000  1.4481115858795086E+000
       H -4.4422170890283237E+000  1.9152768630077281E+000  1.8936235991270653E+000
       H -5.1150416755743882E+000  1.9171778273643245E+000  4.0737244054182692E-001
       O  1.9669863117979964E+000 -3.4196229492795687E+000 -5.2669059658685384E+000
       H  1.3750718854750368E+000 -4.1805080762853537E+000 -5.0353539266148895E+000
       H  1.2819814810150538E+000 -2.7503526187392406E+000 -5.5587757662168134E+000
       O -1.1889920589406837E+000  3.9307389052948301E+000 -3.3708834015938813E+000
       H -1.1787154566131226E+000  3.9419830075844180E+000 -4.3411649699103778E+000
       H -7.1845294100046908E-001  4.6814274377332179E+000 -2.9586563657675597E+000
       O -5.4351472245114962E+000 -5.0029878701875390E+000  4.2721509154918635E+000
       H -6.1341561953484334E+000 -4.5172180489946534E+000  3.7438348609903747E+000
       H -4.8014611151046651E+000 -5.3898970281931646E+000  3.6908832265089484E+000
       O  2.9745722732169120E+000  5.8010080878350152E+000  3.5990243213116000E+000
       H  3.3436117804558134E+000  6.5046387720559906E+000  4.1958504006451474E+000
       H  2.4290421505161488E+000  5.1852393011025839E+000  4.1434139301537209E+000
       O -4.0472619462614254E+000  1.5479345625497689E+000 -5.0681202895217581E+000
       H -3.5802922678770295E+000  7.9842284312640655E-001 -4.5877340542223548E+000
       H -4.0205428252674924E+000  2.3137535160488816E+000 -4.4776027917920391E+000
       O  3.4766154248598320E+000  5.9361944392496846E-001  4.0095344643985511E+000
       H  2.8661401108457834E+000  5.7444569019890757E-001  3.2024647195577178E+000
       H  4.3028271431236060E+000  4.3761810548373642E-001  3.5393745889355452E+000
       O -4.6151927578066951E+000 -1.0200372537889011E+000  3.9979255354256642E+000
       H -5.3499961066820783E+000 -1.2503060329454103E+000  4.6822322627392712E+000
       H -4.1870833765426818E+000 -1.9226608081177641E+000  3.7843979121052906E+000
       O -2.1567122494778773E-001  1.2745000876757027E+000  3.1331105884112320E+000
       H  6.7635956269156650E-001  1.3931430519963512E+000  2.7218210448542774E+000
       H -4.1944694330327587E-001  2.8540357904432906E-001  3.0672267494243486E+000
       O -1.9871618532474877E+000  5.0471641083290155E+000  5.9072481891345263E-001
       H -2.2950991523679427E+000  4.1788806372759266E+000  9.8617600488875645E-001
       H -2.6184585949213122E+000  5.7603568382480015E+000  7.7989576215192968E-001
       O -1.2975881417322932E+000 -1.8959862203375606E+000 -4.9488676293876361E+000
       H -8.4447962656205444E-001 -2.4260000463403841E+000 -4.2026563066738873E+000
       H -5.1753501840536675E-001 -1.3190541370155433E+000 -5.4058824526077069E+000
       O -5.1474696587120032E+000  1.8163602675487669E+000 -1.2949290984500867E+000
       H -4.6896927580242895E+000  2.4822427272717569E+000 -1.8862938401332319E+000
       H -5.3630314052661507E+000  1.1054334268146808E+000 -1.9187615889978020E+000
       O -7.3725434743158704E+000 -1.2310127856902984E+000 -1.9463011288138243E+000
       H -6.4119126326928768E+000 -1.1004746927948630E+000 -2.1520263422800361E+000
       H -7.4688554269646383E+000 -1.5237200530658621E+000 -9.9634737902163573E-001
       O -4.6255626948813844E-001  1.4130274567066581E+000 -1.7108565841595080E+000
       H -7.8643554075972799E-001  2.1962037671731753E+000 -2.1750997912280332E+000
       H  2.6310885993140992E-001  9.6355335429473243E-001 -2.2298453471068034E+000
       O -3.7631700696267548E-002 -6.5074356496149317E+000 -1.0950836221924600E+000
       H  9.8611688159155886E-003 -5.5508987333131037E+000 -1.1092574075826149E+000
       H -8.2215615785799212E-001 -6.7760983077801775E+000 -4.1315389262417607E-001
       O  5.7092953167972684E+000 -1.6930826194394233E+000  6.0203052268635346E+000
       H  6.0008777991563456E+000 -2.4972487318021583E+000  6.4746994927475141E+000
       H  5.7439407742007793E+000 -9.4493709166497120E-001  6.6246631101626683E+000
       O -2.6041076458898429E+000 -5.7826158332220228E+000 -4.2098624994327558E+000
       H -2.6171910545568240E+000 -6.6894846048464549E+000 -4.5501195655527393E+000
       H -3.5116730730814862E+000 -5.4989318632969617E+000 -3.8835192492558757E+000
       O -4.9429946892169800E+000 -1.4023936323923154E+000 -3.2393776540389791E+000
       H -4.9684997743094277E+000 -2.2666220862123341E+000 -3.7719727179399021E+000
       H -4.0141724216105725E+000 -1.0704405746866825E+000 -3.2380430365230990E+000
       O  2.2895911045737671E+000 -8.0798070753227016E+000 -1.2247156520236473E+000
       H  1.2856438639421925E+000 -8.1069476685655140E+000 -1.1243076402643564E+000
       H  2.5362593233390278E+000 -7.1181913380760591E+000 -1.1713415259285955E+000
       O  6.7772676934745393E+000 -3.8953014886874233E+000 -5.3356045359216111E+000
       H  7.6152664452983725E+000 -4.1737054778332929E+000 -5.8350922532835332E+000
       H  6.0291766245590610E+000 -4.4270201088214423E+000 -5.6850555947857808E+000
       O -3.4356171042322814E-001  4.9716797630916538E+000  2.9576523494070392E+000
       H -6.6110926113657553E-001  4.2334406801545983E+000  3.4704273470098941E+000
       H -7.2136220213967417E-001  4.8440026848890989E+000  2.0571830816282675E+000
       O -2.8150516805337857E+000 -3.9995836215925151E+000  6.2244319342442704E+000
       H -2.4306786596919898E+000 -4.5870032092018587E+000  6.9104099627239322E+000
       H -2.4092687080445860E+000 -3.1557886887908251E+000  6.3980625029841862E+000
       O -2.7965980949038873E+000 -3.4832106743963767E+000  3.4713732604110192E+000
       H -3.0913923245802026E+000 -3.8818847039121285E+000  4.2789501871389355E+000
       H -3.2323225283053381E+000 -4.0479081701747024E+000  2.8242419018122820E+000
       O  2.4871837245282098E+000  4.6840691935823671E+000 -3.9634428258093162E+000
       H  3.3977920886567698E+000  4.5378401689258334E+000 -3.6105312752403678E+000
       H  1.9752092419790179E+000  4.5646399045798782E+000 -3.0919996846732412E+000
       O  1.6536854515071000E+000  5.4820617967451558E-002 -3.1023547997580434E+000
       H  1.6049118723023721E+000 -5.9146989869703848E-001 -2.3646874315104558E+000
       H  2.4635680800416822E+000  5.6108543605516903E-001 -3.0510933205196462E+000
       O -1.2128596315931033E+000 -8.1736108386094308E+000 -6.3553779594067725E+000
       H -8.9701002957414433E-001 -9.0549708080328379E+000 -6.5665804205254528E+000
       H -2.1546148638695408E+000 -8.0407590793173362E+000 -6.5301191360853235E+000
       O -4.6762851950220902E-001  8.3701641440780250E+000  6.0210616784535664E-001
       H  3.3708755211090319E-001  8.2868070142724690E+000  1.1589118667694858E+000
       H -1.2126860255721277E+000  8.0371558680659323E+000  1.1271839678995828E+000
       O  5.8900381761467377E+000 -6.7862394276350706E+000 -6.6126980626983078E+000
       H  5.4363292293534231E+000 -7.5720762873177856E+000 -6.9478539004845681E+000
       H  6.1310034885105553E+000 -6.1526391988886298E+000 -7.3565409006623490E+000
       O -3.5556832834660723E-001 -5.2572702952444930E+000  4.6698016653443783E+000
       H -3.7629095615693270E-001 -6.0985178301122103E+000  4.0714635582061112E+000
       H -1.2809813193300787E+000 -5.1437750822143276E+000  4.9671452956661666E+000
       O -3.8179546018003214E+000 -5.5296910459628359E+000  1.7936571244168307E+000
       H -4.0725918835405590E+000 -6.4204998328425571E+000  2.1294647574012577E+000
       H -4.3943224119731994E+000 -5.2907483177227945E+000  1.0079043578690159E+000
     &END COORD
     &VELOCITY
        -2.0012457993034163E-004 -7.9571379248292453E-005  2.9984682060447458E-005
        -1.2494327049667113E-003  1.1976358458096366E-003  1.2820397092790643E-003
        -4.4581629910312663E-004  4.0460431760505383E-004  6.8472234555217446E-004
         1.0549626047469102E-004  7.3251622263913337E-005  2.4124411409433283E-005
        -8.3822967818005954E-004 -1.2966589374455975E-003  3.2445662451677438E-004
        -1.9014665929036357E-004 -1.4497319823750610E-003  2.8895300224072237E-005
        -4.2753793463336167E-004  6.2048125051085426E-005  4.5688620740826240E-005
        -9.3824598342184373E-004 -2.3104760090658888E-004  2.9482834102547915E-005
        -1.0942694556523421E-006  4.4090539671195545E-004 -7.4329891667093500E-004
        -1.0360820686531827E-004 -5.0481769392472732E-004  6.7921452147311171E-005
         4.2370666149964882E-004  4.1257607532566763E-004  8.7174139097216544E-004
        -6.7007679224051313E-004 -7.8640945422260491E-004 -7.7067965596576502E-004
         1.8778954802393672E-005 -8.2502209047384780E-005 -1.0697408704160379E-005
        -7.2986776776195680E-004 -8.5038041007136215E-004 -1.0345005414288998E-003
         2.0557612667689601E-004  8.6712431461337424E-004 -4.0570720706658150E-005
         2.0269724572071475E-004 -1.2591047070110157E-004 -1.1454838524832391E-004
        -3.2505218823206925E-004  9.2265653996350186E-004 -7.5986177954384725E-004
        -2.3979482881680307E-004  5.8319215796765714E-004  6.3751356358335786E-004
         1.4167735802921155E-004  8.5198169373020905E-005 -1.5080597880273242E-004
        -5.0020292047557255E-004 -2.0188259453274933E-004 -3.8674865416436213E-004
        -4.2863288864102407E-004  1.4758026318832170E-003 -2.7018917821200516E-004
        -3.5182620659125639E-005 -5.2582013083917568E-005 -7.9424173556584188E-005
        -4.3295584702591068E-004 -7.7297279126816039E-004  9.5087227557506013E-004
         1.3198930810516157E-003  1.7779016963182450E-003 -8.5954130003910133E-004
        -1.8825441410877776E-004 -2.0092650556643706E-004 -7.4859476943153099E-005
        -8.4524694167848044E-004  9.8994935102962735E-005  9.4961112986178728E-004
        -8.7648124332742063E-004  1.4698840673856347E-003  5.6799906020827914E-004
         1.9318639601125737E-004  7.3837555089027116E-005 -3.2883599361934254E-004
        -2.0727728542426928E-004 -6.5245699119713608E-005 -2.2077807647704725E-004
        -2.6692541358049613E-004  3.7201678617531346E-004 -5.1265235602745084E-004
        -1.6997503612462746E-004 -1.2601929902302512E-004 -7.0846009013437097E-005
         1.3284692488795390E-003 -1.1566855166713222E-003  1.2963541512497289E-003
         1.8358419854937243E-004  5.5717265929907138E-004  1.8297220082351480E-003
         2.8854906111407222E-004  1.5942968504796212E-004  2.3883452200198817E-005
         1.4641943930769395E-003 -2.3219001587180516E-004  3.9384548432457787E-004
         1.8791161527776683E-004 -1.2764448559083618E-003  9.4096533236112548E-004
        -2.2278965338271437E-004 -2.3363024373959570E-005  6.9919416143052911E-005
        -1.8711047694170674E-004 -1.4133671385832772E-003 -6.8892107077580774E-004
        -6.1361324222217422E-004 -8.3018613834509461E-004 -2.7898898759122807E-004
        -1.2103101479747085E-004  5.0136546187109635E-005 -2.5304864492921216E-004
         8.0833887543717915E-004 -1.4567722352554327E-004 -7.8573167263527562E-004
         3.9169095174523464E-004  1.8949800268217019E-003 -6.4986933411243159E-004
        -2.5356535972870215E-004 -3.8567965467968573E-004  1.1959049884291818E-004
        -1.6054445617253197E-004  8.4415838781857545E-004 -3.5436954239043275E-004
         9.5749288910782469E-004 -3.8734843405639714E-004 -5.2143407619251105E-004
         1.5836996602532296E-005  2.9523539033251528E-005 -2.2762706810414726E-004
         3.3713581505881912E-004 -1.0214867338893254E-003  3.0843749025211787E-004
         6.6848037860790820E-004 -5.5696761947008667E-004 -9.7655064892378251E-004
         2.7581393080702068E-004 -2.3954433960002510E-005  9.9829325805466748E-006
         2.1507977969226512E-004  6.0158301472114590E-004 -2.0309802271258317E-004
        -6.2815204020429008E-004  6.6585866810997099E-005  2.9269217073957184E-004
         1.5161558257800763E-005 -1.4235920757795946E-004 -7.3358070059436549E-005
         2.9174672936530144E-005 -1.2451240992611355E-004 -1.0954389335198730E-003
        -6.4081886515085810E-004  6.7521807974636123E-005  2.4767619760017093E-004
         1.9368049313559863E-004  1.5527226697237005E-004 -2.0611599052196289E-004
         5.6212934283987983E-004 -1.8580654868829413E-005  2.9051804909597400E-004
        -4.5662685785724820E-004 -2.8489761852076802E-004  3.8613083352534222E-004
         3.7219316694533591E-004 -1.4784598959096042E-005 -4.8709689149239359E-004
         8.7855513247351723E-004 -5.7150845390796935E-004  2.8094706811498070E-004
        -1.0255424550745674E-003  3.3142813746747299E-004 -9.2119872074337714E-005
         3.5140057115713112E-005  1.1592927374434651E-004  3.4254716568128034E-004
        -6.0730936115164778E-005  1.3101058569366273E-003  1.3054244235999974E-003
        -7.1455405879584705E-004  1.2949623478957705E-003 -4.5191235549540337E-005
        -1.2443961012188960E-005  3.9489497693617141E-004  2.3540490439422920E-004
         1.5807394762827563E-004  1.5255012335735964E-004 -5.6022802352653810E-004
        -4.8180554666012592E-006  1.4884287403256749E-003 -4.8909186256456110E-004
         8.1484250896971162E-005  3.7523202772303979E-005  1.4211933881714021E-004
        -4.6294110476778253E-005  1.3499501357272655E-003 -1.4359121990190249E-003
         3.6949291820786057E-004  3.7037138007752878E-004  1.1894572915770907E-003
         1.1723794796212208E-004  2.5595055165911950E-005 -2.5822562128800520E-004
        -5.1149166093394666E-004  1.7717807889475780E-003  1.3155324957143136E-004
        -5.5915536711448060E-005  2.7700842182623201E-004 -1.2984843994879318E-003
         4.4386935460007902E-005  8.7063179407342420E-005 -8.4051974771498381E-005
         1.5854446114477747E-004  1.4196030997240040E-003  4.1423559552063128E-004
        -8.2568263818713714E-004  1.3066530081269818E-005  7.3550083514490727E-004
         2.8249492084334124E-004  9.2696996907462473E-005  4.1579831786284099E-005
         1.1918530546981617E-003  5.2545375720008567E-004  6.4107148479467641E-004
         7.7831368859101688E-004 -4.0489896999047509E-004  2.1577512906585078E-004
         1.0325188655836137E-004 -8.3728750966165832E-007 -9.3386762015012942E-005
         2.6655654420009654E-004 -5.8591436416742537E-004  1.4192061061461507E-004
         5.0056873545154597E-004  1.9022373829223212E-004  1.1291542832146098E-003
         5.7710316203268682E-005 -8.1844361810490691E-005 -1.5849162887960231E-004
        -4.0579705971589638E-005 -1.7009555604901430E-004  1.1201632253185540E-004
         7.0935853934576227E-004  1.6057848159250385E-003 -8.1897948851132721E-005
        -5.2160952314349383E-004 -7.1201827033811238E-005 -1.8851119950396203E-004
         5.4257466654426888E-004 -6.1295098902345343E-004 -1.4755575251569784E-003
         6.8558529955759916E-004  3.7940100038520366E-004  1.0546636630972799E-003
         1.2899360834673574E-004  1.1106803572932976E-004  1.1994798154025066E-004
         2.4970357300452500E-004 -7.1161487572419006E-004  1.2905616970230020E-003
        -7.8944834918082422E-004 -3.6580046153083460E-004  3.4135177395450567E-004
        -6.8838767717212997E-005 -1.0369498385159278E-004  3.1476816224296477E-004
        -8.2012043195725588E-005 -1.5696848795617474E-004  5.1175474868422542E-005
        -1.3006397525391182E-003 -4.2439327078925833E-004  6.6945481370728503E-004
         2.2999166001514332E-004 -2.1781942655248497E-004 -1.6224474496800344E-004
        -4.4588258539262493E-004  8.2724302586274778E-004  8.2051860945669345E-004
        -3.7518419687299279E-005  2.7845248014757886E-004 -1.2953431936754735E-003
        -1.9169399867669535E-004  3.7486959490514669E-004 -6.9992393308633048E-005
         9.7214327475097183E-004  1.7102072036186911E-005  1.3908836686231697E-004
        -2.2137475335953479E-003 -3.1843395717494907E-004  5.8546214757370361E-004
        -1.1041600836335700E-004  9.8884908849827032E-005  1.7847012320526510E-004
        -4.3223671373042780E-004 -2.0326555657944399E-004  1.2693811945250211E-003
         2.9218609464540886E-004 -5.3018668277128177E-004 -7.8162332200350584E-004
         1.0844601225125361E-004  2.6088180355540703E-004  1.5167688581363222E-004
         6.1067149508977540E-004  4.9994755640910514E-004 -1.4540385798437062E-004
         2.3519481314300823E-004  1.3666704360616784E-004  9.3240282796380541E-004
         9.7745865878976057E-005  8.7412045110361839E-005  5.7124800609031303E-006
         1.3065039030701121E-003  4.5807821445436432E-004  3.4682785681298515E-005
         6.7525672879684630E-005  4.5479577837527762E-004 -1.0414496216995593E-003
         5.1513663443347243E-005 -1.6073161203576563E-004  8.1740915823073370E-005
         7.2568715734572416E-004 -4.0565812974508841E-004 -2.1635588808026148E-004
         5.6294655114977354E-004  1.0902849062553439E-003 -3.7027801832990539E-004
        -2.3526215620498021E-004  1.4131862226020541E-005 -5.5707413627598237E-005
        -9.1006777787398197E-005  1.7694857717581096E-004 -1.0010344173728644E-003
        -7.5597653053020397E-004 -9.8656260073509087E-004 -7.6812895942789984E-004
         1.9411335711615046E-005  1.1176161715090047E-004 -9.1148711576472254E-005
        -1.4034400836795450E-003  7.0841836853532904E-004  7.7150965647092100E-004
        -2.0896131393212036E-004 -1.1956019427156710E-004 -1.5221265590286705E-003
         6.5935858412843477E-005  3.2424613125289607E-005 -1.0698695748932914E-004
        -1.0019835810219835E-003  6.8916364132524130E-004  4.5694083789205573E-004
         3.2716449299001428E-004 -8.1613456726573497E-004 -7.7660857321778100E-004
        -1.8100090118710628E-004 -1.2376049301124318E-004 -3.3336987360699616E-005
         1.6497958418940435E-003  9.4818057508713294E-004 -7.8873221366818178E-004
         9.4340410006718404E-005  3.5969722263093595E-004  1.7734882806943835E-003
         8.4534626819408892E-005 -1.9001750256358586E-004 -1.1469232435811543E-004