 # Version information for this restart file 
 # current date 2022-01-04 08:40:59.158
 # current working dir /scratch/usr/nichdsas/cp2k-parser-tests/9.1/md_nvt_low
 # Program compiled at                              Mon Jan  3 14:05:13 CET 2022
 # Program compiled on                                                   glogin4
 # Program compiled for                                          hlrn-gompi-foss
 # Source code revision number                                       git:d8d7100
 &GLOBAL
   PRINT_LEVEL  LOW
   PROJECT_NAME aiida
   RUN_TYPE  MD
 &END GLOBAL
 &MOTION
   &MD
     ENSEMBLE  NVT
     STEPS  5
     TIMESTEP     4.9999999999999994E-01
     STEP_START_VAL  5
     TIME_START_VAL     2.4999999999999996E+00
     ECONS_START_VAL    -1.1028095256884492E+03
     TEMPERATURE     3.0000000000000000E+02
     &THERMOSTAT
       TYPE  NOSE
       REGION  MASSIVE
     &END THERMOSTAT
     &AVERAGES  T
       &RESTART_AVERAGES
         ITIMES_START  1
         AVECPU     4.1832347403466699E+01
         AVEHUGONIOT     0.0000000000000000E+00
         AVETEMP_BARO     0.0000000000000000E+00
         AVEPOT    -1.1033662327812967E+03
         AVEKIN     2.8308815512455415E-01
         AVETEMP     3.1038910593732658E+02
         AVEKIN_QM     0.0000000000000000E+00
         AVETEMP_QM     0.0000000000000000E+00
         AVEVOL     1.2928894580884409E+04
         AVECELL_A     2.3470398570439684E+01
         AVECELL_B     2.3470398570439684E+01
         AVECELL_C     2.3470398570439684E+01
         AVEALPHA     9.0000000000000000E+01
         AVEBETA     9.0000000000000000E+01
         AVEGAMMA     9.0000000000000000E+01
         AVE_ECONS    -9.0405806888576093E-02
         AVE_PRESS     0.0000000000000000E+00
         AVE_PXX     0.0000000000000000E+00
       &END RESTART_AVERAGES
     &END AVERAGES
   &END MD
 &END MOTION
 &FORCE_EVAL
   METHOD  QS
   &DFT
     BASIS_SET_FILE_NAME BASIS_MOLOPT
     POTENTIAL_FILE_NAME GTH_POTENTIALS
     MULTIPLICITY  1
     CHARGE  0
     &SCF
       MAX_SCF  30
       EPS_SCF     1.0000000000000001E-05
       SCF_GUESS  ATOMIC
       &OT  T
         MINIMIZER  DIIS
         PRECONDITIONER  FULL_SINGLE_INVERSE
       &END OT
       &OUTER_SCF  T
         EPS_SCF     9.9999999999999995E-07
         MAX_SCF  5
       &END OUTER_SCF
       &PRINT
         &RESTART  OFF
         &END RESTART
       &END PRINT
     &END SCF
     &QS
       EPS_DEFAULT     1.0000000000000000E-08
       EXTRAPOLATION  ASPC
       METHOD  GPW
     &END QS
     &MGRID
       CUTOFF     4.0000000000000000E+02
     &END MGRID
     &XC
       DENSITY_CUTOFF     1.0000000000000000E-10
       GRADIENT_CUTOFF     1.0000000000000000E-10
       TAU_CUTOFF     1.0000000000000000E-10
       &XC_FUNCTIONAL  NO_SHORTCUT
         &PBE  T
         &END PBE
       &END XC_FUNCTIONAL
       &VDW_POTENTIAL
         POTENTIAL_TYPE  PAIR_POTENTIAL
         &PAIR_POTENTIAL
           R_CUTOFF     1.6000000000000000E+01
           TYPE  DFTD3
           PARAMETER_FILE_NAME dftd3.dat
           REFERENCE_FUNCTIONAL PBE
         &END PAIR_POTENTIAL
       &END VDW_POTENTIAL
     &END XC
     &POISSON
       PERIODIC  XYZ
     &END POISSON
   &END DFT
   &SUBSYS
     &CELL
       A     1.2420000000000000E+01    0.0000000000000000E+00    0.0000000000000000E+00
       B     0.0000000000000000E+00    1.2420000000000000E+01    0.0000000000000000E+00
       C     0.0000000000000000E+00    0.0000000000000000E+00    1.2420000000000000E+01
       MULTIPLE_UNIT_CELL  1 1 1
     &END CELL
     &COORD
O    3.8476523449571123E+00   -4.7572858050839546E+00    5.5115245845274776E+00
H    4.1497688750467443E+00   -5.5056491468484250E+00    6.0683847935870485E+00
H    3.0574142856891555E+00   -4.2852793714456983E+00    5.9390440531958157E+00
O   -3.5402253350684858E+00    1.7506229286990216E+00    4.2923541522524946E+00
H   -3.3923308488365973E+00    7.6122192084084495E-01    4.1612148599187364E+00
H   -3.6132926516188189E+00    1.8605078693837644E+00    5.2190171694537657E+00
O    4.5456227369049049E+00    2.9364709654492809E+00   -7.1008090148461962E+00
H    3.6179751341721218E+00    3.2240598201866164E+00   -6.7885720683933597E+00
H    4.5034151434952845E+00    2.8172408121255965E+00   -8.0457501673143650E+00
O   -2.5785360701602467E+00   -1.3225011917193541E-01   -3.4094899453087093E+00
H   -2.0377144059978911E+00    4.1032370952125563E-01   -2.8178529424964229E+00
H   -1.9113812227585449E+00   -6.4750225922129678E-01   -3.9657431797304725E+00
O   -3.7612751781646989E+00   -7.7162625969845582E+00    5.6315818858479556E+00
H   -4.6675601840473382E+00   -7.4669052285251665E+00    5.9330779566098419E+00
H   -3.8356875331247600E+00   -7.5737707145210837E+00    4.5981656360934018E+00
O   -6.7019957337359388E+00   -8.2861220554712053E-02    2.3103323677972885E+00
H   -6.0574628097447860E+00   -4.0113626353006737E-01    2.9842795718341466E+00
H   -6.2720675019408159E+00    7.6721682191582585E-01    1.9953644491113727E+00
O    4.0181391743713073E+00   -5.5759277303593526E+00   -4.2079929936792454E-01
H    3.3115878232581903E+00   -5.6289378425867573E+00    2.7504291294838196E-01
H    3.8885985801956635E+00   -4.6884479194353892E+00   -8.3151281881583272E-01
O   -2.6708576949909331E+00   -3.0839192551300623E+00   -1.2293555948736716E+00
H   -3.2784731009348747E+00   -2.4928517043320642E+00   -1.7005493999628774E+00
H   -2.1136787674197617E+00   -2.5088166924488680E+00   -6.1932268451512940E-01
O    5.4469281151470765E+00   -3.1793901877087971E+00    3.0960552196850495E+00
H    4.6376570933965109E+00   -3.2479162718423793E+00    3.6944993140113840E+00
H    5.2230696006489632E+00   -2.9639622866542972E+00    2.1363158953303465E+00
O    2.0184499198940511E+00    3.8060650714846536E+00   -6.6620655262876012E+00
H    1.3770270881946487E+00    3.0724805897736553E+00   -6.8197760192857073E+00
H    1.8113229813229736E+00    4.0875976326934023E+00   -5.7405793843037056E+00
O    4.0538238544566187E+00   -3.8994257686877534E+00   -3.0621926940400250E+00
H    3.2831921474224965E+00   -3.7755340300300415E+00   -3.6390884461175292E+00
H    4.3321435234711618E+00   -2.9743342065726570E+00   -2.8927125128400060E+00
O    1.9911703732456920E+00   -1.8367531062048381E+00    1.0233832764696518E+00
H    1.6415785666694516E+00   -2.4879456056886626E+00    1.6750237694150678E+00
H    1.6430063990315753E+00   -1.9673461191292336E+00    1.1436041735466941E-01
O    7.2383887176274175E-01   -5.7477507718415861E+00   -5.0089689076247730E+00
H    1.4318282157472311E+00   -6.3710100862529364E+00   -4.8600287924978192E+00
H    4.2543137375775136E-01   -5.7398823571426920E+00   -5.9181545028360460E+00
O   -7.5227084346099913E+00   -8.6742981035856221E+00   -3.2517552226750563E+00
H   -7.8286284817215082E+00   -9.6036261441206818E+00   -3.1089855912073623E+00
H   -7.1226807184418721E+00   -8.4938123683083528E+00   -2.3915267525347677E+00
O    2.9967200156559373E+00   -1.6392410905018666E+00    5.1746010777225155E+00
H    3.8342030212752047E+00   -1.7514749930662517E+00    5.6695194537923532E+00
H    3.2093996997923959E+00   -8.8513093132519005E-01    4.6032000637673960E+00
O   -9.3981066674305974E-02    1.8627605856179184E+00   -6.7010856623756991E+00
H    2.4851356678245654E-01    1.0300354674734953E+00   -6.3180135358249601E+00
H   -7.9108504512273650E-03    1.7256021883189998E+00   -7.6424884312106203E+00
O    1.3949219369907961E+00   -3.0865100270445955E+00    3.6637438783936584E+00
H    2.0118709927544751E+00   -2.6436372138266897E+00    4.2977354609648284E+00
H    1.0859631661237075E+00   -3.9138054749474018E+00    3.9689922570583578E+00
O   -2.3282066405595376E+00    2.7977935219202048E+00    2.2332326540692953E+00
H   -1.6086213624537966E+00    2.1098694689162749E+00    2.1098585646475168E+00
H   -2.7965698486218984E+00    2.5965913802415876E+00    3.0832178048295287E+00
O    8.8204856087087846E-01   -6.5407493951289108E-01   -5.6103944774677315E+00
H    1.7808054571721077E+00   -8.1324037281487094E-01   -6.0954143079316125E+00
H    1.1758966985808992E+00   -2.4051657644856828E-01   -4.7397617571595205E+00
O   -1.1659508185836664E+00   -7.1870873916100619E-01    2.2045955911837031E-01
H   -1.0883294195555500E+00    2.3040193607122322E-01   -6.1035711710604526E-02
H   -9.9175182802153017E-01   -7.6019376872769462E-01    1.1521247065044198E+00
O   -3.8848294046916139E+00   -9.0050432615243388E+00   -3.1129051416291493E+00
H   -4.4951589798980667E+00   -8.2402528898188194E+00   -3.1462578685698115E+00
H   -2.9514136351878233E+00   -8.6631350126532904E+00   -3.1310574144614463E+00
O    4.9788070674497451E+00    4.5789816263372218E+00    2.1732999987436963E+00
H    4.5821871687594964E+00    4.0917957453971034E+00    1.4196794100544108E+00
H    4.1990040773305610E+00    4.9855029389955305E+00    2.6443519348732032E+00
O    4.2125979079902374E+00    1.0320643193079522E+00   -3.2075179558690214E+00
H    4.6109829830420690E+00    9.2892321051861126E-01   -4.1218526723301387E+00
H    4.4390493108605789E+00    1.9775575957021072E-01   -2.6646120146673207E+00
O   -5.2049429059744057E+00   -6.3435776378949154E+00   -2.6938083039228937E+00
H   -5.4127114218263994E+00   -6.0011639282017235E+00   -1.7785273078979407E+00
H   -5.9895092842606399E+00   -6.0787615532548198E+00   -3.2115273884013877E+00
O    4.8297826545058165E+00   -2.1460301274331335E+00    6.9148834614081844E-01
H    5.1654009966326031E+00   -1.3040323033120926E+00    1.1898607007938382E+00
H    3.8455341599819128E+00   -2.0002332379073766E+00    8.3128074694201104E-01
O    2.1233117341287904E+00    9.4619723053581417E-01    1.6988741636283009E+00
H    2.8186775415154561E+00    1.5138894727197942E+00    1.3030530792811137E+00
H    2.3787825058190157E+00    7.7819659130711635E-02    1.3043882201252934E+00
O   -5.7551611465470502E+00   -5.0952218493453687E+00   -3.6631930630238274E-01
H   -6.6280136223405108E+00   -5.4636281708206926E+00   -2.4921708320056804E-01
H   -5.9110110075797859E+00   -4.1636564688783002E+00   -6.3274687694898757E-01
O   -4.8451714031716779E+00    4.6295334585666188E+00    2.6237514891609672E+00
H   -5.8338666198480951E+00    4.7080363053695962E+00    2.3479137323581836E+00
H   -4.7458081160502390E+00    3.7721490593574116E+00    2.2497939500698898E+00
O    5.4878855705818745E+00    8.5034780893516104E-01   -5.6028979824573959E+00
H    6.3743017184711883E+00    1.1349259102086757E+00   -5.4292715072625697E+00
H    5.0537462814948348E+00    1.4711340892448161E+00   -6.2287574403135952E+00
O    7.4203322552736706E-01   -1.9094702528728120E+00   -1.2632027025492707E+00
H    4.4137034539481340E-01   -2.7336832765823154E+00   -1.7944160149765269E+00
H   -4.2908696079471571E-02   -1.6733857432078956E+00   -7.3041999635127119E-01
O    3.8980938339558886E+00    2.6153010043282698E+00    9.9147125366512628E-02
H    4.6403480981778999E+00    2.4145249094265981E+00   -4.7663747629381653E-01
H    3.2891603467418253E+00    3.2296918292348704E+00   -4.2733128908356510E-01
O   -1.0877513901562317E+00   -1.3777923395916081E+00    2.9398761220063148E+00
H   -3.4537839568493972E-01   -2.0215520765893453E+00    3.1568884354793094E+00
H   -1.8639888134401161E+00   -1.9985169512900773E+00    3.1409485824666774E+00
O    2.0638896927987944E+00   -5.6291011757085823E+00    1.3589710299735218E+00
H    1.2241783584131634E+00   -6.1510749855615456E+00    1.2679508744038535E+00
H    2.3326177588319670E+00   -5.9010392283195916E+00    2.2929757835968831E+00
O   -6.3569086027817512E-01   -3.8243248754036343E+00   -2.8366279595407020E+00
H   -1.5662129729812375E+00   -3.7833270203506562E+00   -2.5291166488599708E+00
H   -4.9298200742203901E-01   -4.5871868985511384E+00   -3.4240910833449347E+00
O   -5.2851512109669345E+00    2.0768708245480134E+00    1.4481115858432174E+00
H   -4.4422170889683610E+00    1.9152768632761059E+00    1.8936235989150685E+00
H   -5.1150416755793886E+00    1.9171778267921757E+00    4.0737244013754237E-01
O    1.9669863117946236E+00   -3.4196229492762327E+00   -5.2669059658918691E+00
H    1.3750718858907984E+00   -4.1805080769640144E+00   -5.0353539264655316E+00
H    1.2819814803749816E+00   -2.7503526181906661E+00   -5.5587757658794850E+00
O   -1.1889920589633562E+00    3.9307389053071500E+00   -3.3708834015967670E+00
H   -1.1787154565301978E+00    3.9419830076554137E+00   -4.3411649698330308E+00
H   -7.1845294145304572E-01    4.6814274379307932E+00   -2.9586563662148948E+00
O   -5.4351472245047594E+00   -5.0029878701923396E+00    4.2721509154917490E+00
H   -6.1341561959028787E+00   -4.5172180492452503E+00    3.7438348610105887E+00
H   -4.8014611150820414E+00   -5.3898970282243610E+00    3.6908832263974167E+00
O    2.9745722732030107E+00    5.8010080878297083E+00    3.5990243212730402E+00
H    3.3436117805169903E+00    6.5046387713713330E+00    4.1958504008001265E+00
H    2.4290421504519961E+00    5.1852393010600579E+00    4.1434139300301887E+00
O   -4.0472619461952988E+00    1.5479345625669205E+00   -5.0681202895162496E+00
H   -3.5802922676943965E+00    7.9842284342184189E-01   -4.5877340538627882E+00
H   -4.0205428252834920E+00    2.3137535160455656E+00   -4.4776027916633048E+00
O    3.4766154248639318E+00    5.9361944393506294E-01    4.0095344644104003E+00
H    2.8661401107298747E+00    5.7444569001116408E-01    3.2024647194268954E+00
H    4.3028271425506057E+00    4.3761810507559157E-01    3.5393745881632714E+00
O   -4.6151927577920695E+00   -1.0200372537614295E+00    3.9979255354638505E+00
H   -5.3499961071482955E+00   -1.2503060327899445E+00    4.6822322626441730E+00
H   -4.1870833766621507E+00   -1.9226608080819658E+00    3.7843979120418121E+00
O   -2.1567122495703145E-01    1.2745000876647274E+00    3.1331105884015793E+00
H    6.7635956277770648E-01    1.3931430519330286E+00    2.7218210449620779E+00
H   -4.1944694327972720E-01    2.8540357909495601E-01    3.0672267493637460E+00
O   -1.9871618532263717E+00    5.0471641083507146E+00    5.9072481891127859E-01
H   -2.2950991526758902E+00    4.1788806370792422E+00    9.8617600529456872E-01
H   -2.6184585947802366E+00    5.7603568381611749E+00    7.7989576221775148E-01
O   -1.2975881417307356E+00   -1.8959862203527649E+00   -4.9488676293755214E+00
H   -8.4447962645445451E-01   -2.4260000461612554E+00   -4.2026563070401659E+00
H   -5.1753501843375382E-01   -1.3190541366490087E+00   -5.4058824529296983E+00
O   -5.1474696587115085E+00    1.8163602675673474E+00   -1.2949290984394659E+00
H   -4.6896927580947017E+00    2.4822427272933107E+00   -1.8862938400147158E+00
H   -5.3630314051647012E+00    1.1054334265096286E+00   -1.9187615885832856E+00
O   -7.3725434742878351E+00   -1.2310127856406738E+00   -1.9463011288178236E+00
H   -6.4119126325068487E+00   -1.1004746924920281E+00   -2.1520263421257178E+00
H   -7.4688554267793608E+00   -1.5237200531108162E+00   -9.9634737929803108E-01
O   -4.6255626947361533E-01    1.4130274566735359E+00   -1.7108565841574006E+00
H   -7.8643554080038014E-01    2.1962037671321766E+00   -2.1750997913423276E+00
H    2.6310886007775108E-01    9.6355335386835150E-01   -2.2298453468219619E+00
O   -3.7631700678172265E-02   -6.5074356495994170E+00   -1.0950836222099019E+00
H    9.8611690372126075E-03   -5.5508987336300057E+00   -1.1092574073611758E+00
H   -8.2215615804538777E-01   -6.7760983077920374E+00   -4.1315389335005914E-01
O    5.7092953168077063E+00   -1.6930826194698514E+00    6.0203052268441004E+00
H    6.0008777991717643E+00   -2.4972487317509229E+00    6.4746994926580568E+00
H    5.7439407743611692E+00   -9.4493709210745291E-01    6.6246631099001050E+00
O   -2.6041076458987691E+00   -5.7826158332352744E+00   -4.2098624993981932E+00
H   -2.6171910552276638E+00   -6.6894846050515238E+00   -4.5501195654889770E+00
H   -3.5116730731288555E+00   -5.4989318627693748E+00   -3.8835192493213699E+00
O   -4.9429946891799501E+00   -1.4023936323824717E+00   -3.2393776540057369E+00
H   -4.9684997748230133E+00   -2.2666220860031223E+00   -3.7719727180941716E+00
H   -4.0141724213104268E+00   -1.0704405747990848E+00   -3.2380430366836550E+00
O    2.2895911045899351E+00   -8.0798070753155606E+00   -1.2247156520413442E+00
H    1.2856438639152112E+00   -8.1069476688888127E+00   -1.1243076406328443E+00
H    2.5362593229358867E+00   -7.1181913378789048E+00   -1.1713415255753992E+00
O    6.7772676934842666E+00   -3.8953014887071382E+00   -5.3356045359030659E+00
H    7.6152664451632326E+00   -4.1737054778426588E+00   -5.8350922533497211E+00
H    6.0291766242350526E+00   -4.4270201087656105E+00   -5.6850555948126678E+00
O   -3.4356171039261374E-01    4.9716797630947402E+00    2.9576523493804987E+00
H   -6.6110926145608451E-01    4.2334406802270452E+00    3.4704273464959616E+00
H   -7.2136220206299506E-01    4.8440026843339634E+00    2.0571830811296037E+00
O   -2.8150516805287289E+00   -3.9995836216161278E+00    6.2244319342278276E+00
H   -2.4306786593802050E+00   -4.5870032088842585E+00    6.9104099631806353E+00
H   -2.4092687081264947E+00   -3.1557886888084510E+00    6.3980625027960869E+00
O   -2.7965980948775933E+00   -3.4832106743804720E+00    3.4713732603642087E+00
H   -3.0913923244758927E+00   -3.8818847039106505E+00    4.2789501870483271E+00
H   -3.2323225283815602E+00   -4.0479081706502509E+00    2.8242419017607037E+00
O    2.4871837245327977E+00    4.6840691935262679E+00   -3.9634428257599370E+00
H    3.3977920886867832E+00    4.5378401690626751E+00   -3.6105312751833645E+00
H    1.9752092419755840E+00    4.5646399046261052E+00   -3.0919996844416722E+00
O    1.6536854515617117E+00    5.4820618014466811E-02   -3.1023547997480505E+00
H    1.6049118720593687E+00   -5.9146989847131337E-01   -2.3646874318393585E+00
H    2.4635680801736375E+00    5.6108543631787333E-01   -3.0510933207563986E+00
O   -1.2128596315819560E+00   -8.1736108386126425E+00   -6.3553779594308288E+00
H   -8.9701002960674814E-01   -9.0549708078445743E+00   -6.5665804200111992E+00
H   -2.1546148637623452E+00   -8.0407590797834416E+00   -6.5301191355941937E+00
O   -4.6762851948539796E-01    8.3701641440729073E+00    6.0210616779600945E-01
H    3.3708755245952177E-01    8.2868070139897867E+00    1.1589118664265130E+00
H   -1.2126860260781880E+00    8.0371558675147128E+00    1.1271839674367259E+00
O    5.8900381761714753E+00   -6.7862394276443325E+00   -6.6126980627013525E+00
H    5.4363292295434995E+00   -7.5720762871660483E+00   -6.9478539003220732E+00
H    6.1310034891222784E+00   -6.1526391986164937E+00   -7.3565409001072615E+00
O   -3.5556832836198576E-01   -5.2572702952809367E+00    4.6698016653860330E+00
H   -3.7629095652461775E-01   -6.0985178307570438E+00    4.0714635577627138E+00
H   -1.2809813191995338E+00   -5.1437750820949741E+00    4.9671452953012372E+00
O   -3.8179546017830912E+00   -5.5296910459424620E+00    1.7936571244063433E+00
H   -4.0725918834717607E+00   -6.4204998325706120E+00    2.1294647572842944E+00
H   -4.3943224119084983E+00   -5.2907483180562043E+00    1.0079043582546869E+00
     &END COORD
     &VELOCITY
          -2.0012457712228723E-04   -7.9571378317534988E-05    2.9984680829188257E-05
          -1.2494326912728798E-03    1.1976358492798694E-03    1.2820396974112841E-03
          -4.4581629913619674E-04    4.0460429825206544E-04    6.8472233715139851E-04
           1.0549626124890616E-04    7.3251624078132929E-05    2.4124410733546768E-05
          -8.3822967140432169E-04   -1.2966589415713318E-03    3.2445663631066804E-04
          -1.9014667384379912E-04   -1.4497319833485201E-03    2.8895298387363344E-05
          -4.2753793584992189E-04    6.2048125745541529E-05    4.5688621902487699E-05
          -9.3824598421589789E-04   -2.3104760137783193E-04    2.9482832750093952E-05
          -1.0942714383870676E-06    4.4090542283348400E-04   -7.4329891284549427E-04
          -1.0360820733737035E-04   -5.0481769401760712E-04    6.7921451400108050E-05
           4.2370666798246062E-04    4.1257605661509884E-04    8.7174139320898283E-04
          -6.7007680068976831E-04   -7.8640944270256402E-04   -7.7067966683925170E-04
           1.8778953026367301E-05   -8.2502210955845475E-05   -1.0697408282105079E-05
          -7.2986779279576094E-04   -8.5038040261883939E-04   -1.0345005587405400E-03
           2.0557612458837918E-04    8.6712430126000440E-04   -4.0570711131045387E-05
           2.0269724882309508E-04   -1.2591047106644767E-04   -1.1454838595221289E-04
          -3.2505219900498457E-04    9.2265653150628473E-04   -7.5986178499190440E-04
          -2.3979482916013586E-04    5.8319215315635420E-04    6.3751357015559356E-04
           1.4167735835405706E-04    8.5198169301551666E-05   -1.5080597830356026E-04
          -5.0020291846048024E-04   -2.0188259888434551E-04   -3.8674864928632909E-04
          -4.2863288677165017E-04    1.4758026323208682E-03   -2.7018917688965418E-04
          -3.5182620899953281E-05   -5.2582012811302840E-05   -7.9424172303920701E-05
          -4.3295584940238204E-04   -7.7297278965718125E-04    9.5087227751622914E-04
           1.3198930820414751E-03    1.7779016945763248E-03   -8.5954129901125501E-04
          -1.8825441256350428E-04   -2.0092650417222234E-04   -7.4859477712465501E-05
          -8.4524694295474653E-04    9.8994922664038225E-05    9.4961113327510867E-04
          -8.7648124133584814E-04    1.4698840724140750E-03    5.6799906675316953E-04
           1.9318639542678423E-04    7.3837554489717791E-05   -3.2883599375907701E-04
          -2.0727729023294468E-04   -6.5245698911305149E-05   -2.2077806430674180E-04
          -2.6692541353036647E-04    3.7201678378600688E-04   -5.1265235452552574E-04
          -1.6997503659289560E-04   -1.2601929953794347E-04   -7.0846008298720847E-05
           1.3284692510428533E-03   -1.1566855222467651E-03    1.2963541455543405E-03
           1.8358417317813598E-04    5.5717266203173226E-04    1.8297220106322318E-03
           2.8854906012309284E-04    1.5942968516326336E-04    2.3883452975976639E-05
           1.4641944034359429E-03   -2.3219002347059012E-04    3.9384548615947925E-04
           1.8791161586216378E-04   -1.2764448551124566E-03    9.4096533122502938E-04
          -2.2278965238517931E-04   -2.3363024497726242E-05    6.9919417658378645E-05
          -1.8711046744425872E-04   -1.4133671376253092E-03   -6.8892105078370439E-04
          -6.1361323356586082E-04   -8.3018614212923352E-04   -2.7898898822752242E-04
          -1.2103101465668144E-04    5.0136547238547590E-05   -2.5304864453785426E-04
           8.0833887502949724E-04   -1.4567722240252273E-04   -7.8573167136527068E-04
           3.9169095423225629E-04    1.8949800229262645E-03   -6.4986933576271491E-04
          -2.5356535920391729E-04   -3.8567965555306826E-04    1.1959049949479856E-04
          -1.6054445758808693E-04    8.4415838961641424E-04   -3.5436954308769124E-04
           9.5749286765085134E-04   -3.8734843031409862E-04   -5.2143405988560329E-04
           1.5836997963408609E-05    2.9523539023237901E-05   -2.2762706719192181E-04
           3.3713582175907812E-04   -1.0214867359718462E-03    3.0843748080061525E-04
           6.6848039721476775E-04   -5.5696762203247643E-04   -9.7655063770840807E-04
           2.7581393130459320E-04   -2.3954433423336055E-05    9.9829319619149455E-06
           2.1507978189301254E-04    6.0158302101479964E-04   -2.0309802615270871E-04
          -6.2815201554758317E-04    6.6585856446708610E-05    2.9269218672850884E-04
           1.5161557403424389E-05   -1.4235920621580113E-04   -7.3358069965931023E-05
           2.9174676130391908E-05   -1.2451239915035368E-04   -1.0954389365184635E-03
          -6.4081887137189806E-04    6.7521798796777550E-05    2.4767619726065470E-04
           1.9368049307248825E-04    1.5527226759326875E-04   -2.0611599133590094E-04
           5.6212934508133793E-04   -1.8580641156745295E-05    2.9051806435348405E-04
          -4.5662686315375351E-04   -2.8489762092974598E-04    3.8613082686091664E-04
           3.7219316506013889E-04   -1.4784597716508063E-05   -4.8709689120359585E-04
           8.7855513279404729E-04   -5.7150845509387673E-04    2.8094706820469404E-04
          -1.0255424660599213E-03    3.3142812866957097E-04   -9.2119866948746926E-05
           3.5140057237547024E-05    1.1592927265026888E-04    3.4254716574457389E-04
          -6.0730937616181964E-05    1.3101058555604424E-03    1.3054244301525797E-03
          -7.1455406610006005E-04    1.2949623539262095E-03   -4.5191230726159236E-05
          -1.2443961589071594E-05    3.9489497656719291E-04    2.3540490481195806E-04
           1.5807396014137106E-04    1.5255011939624478E-04   -5.6022801045832872E-04
          -4.8180591973861672E-06    1.4884287331316025E-03   -4.8909186297731578E-04
           8.1484251229805129E-05    3.7523203179363518E-05    1.4211934071803970E-04
          -4.6294118380026723E-05    1.3499501394693139E-03   -1.4359121912931954E-03
           3.6949290660608764E-04    3.7037136337156069E-04    1.1894572821673575E-03
           1.1723794725918390E-04    2.5595055888497380E-05   -2.5822562056341397E-04
          -5.1149166338664378E-04    1.7717807972384481E-03    1.3155325530758019E-04
          -5.5915549479382170E-05    2.7700843169554089E-04   -1.2984843823733473E-03
           4.4386936314206633E-05    8.7063179974016596E-05   -8.4051975114738249E-05
           1.5854446273317813E-04    1.4196030955348873E-03    4.1423559077748557E-04
          -8.2568262858580353E-04    1.3066522897443210E-05    7.3550083364903635E-04
           2.8249492069624212E-04    9.2696998733355520E-05    4.1579831376007632E-05
           1.1918530574611039E-03    5.2545375675059464E-04    6.4107147578788002E-04
           7.7831368080202227E-04   -4.0489896401148847E-04    2.1577512948166047E-04
           1.0325188633539541E-04   -8.3728802065590660E-07   -9.3386763041357858E-05
           2.6655655317274170E-04   -5.8591436858436473E-04    1.4192059672400368E-04
           5.0056872195193124E-04    1.9022373351225292E-04    1.1291542687150652E-03
           5.7710316645720394E-05   -8.1844361357675863E-05   -1.5849162918010691E-04
          -4.0579703917330795E-05   -1.7009555938836548E-04    1.1201631343425051E-04
           7.0935852562686288E-04    1.6057848093654925E-03   -8.1897947344903335E-05
          -5.2160952406947968E-04   -7.1201826659323349E-05   -1.8851119885661348E-04
           5.4257466146684591E-04   -6.1295098109030634E-04   -1.4755575385145825E-03
           6.8558528649039830E-04    3.7940100454478644E-04    1.0546636553471543E-03
           1.2899360670398828E-04    1.1106803603313961E-04    1.1994798277258866E-04
           2.4970357440383135E-04   -7.1161487561548979E-04    1.2905617084066135E-03
          -7.8944834913925103E-04   -3.6580046230831403E-04    3.4135177229655743E-04
          -6.8838767688070401E-05   -1.0369498284239917E-04    3.1476816140589054E-04
          -8.2012046147902787E-05   -1.5696848866636180E-04    5.1175461423508625E-05
          -1.3006397561678010E-03   -4.2439327326796545E-04    6.6945482093522116E-04
           2.2999165746310894E-04   -2.1781942443234244E-04   -1.6224474513354018E-04
          -4.4588258655351690E-04    8.2724303898400317E-04    8.2051859978127923E-04
          -3.7518428227422627E-05    2.7845248719830204E-04   -1.2953431873689875E-03
          -1.9169399717212159E-04    3.7486959523505613E-04   -6.9992392669500394E-05
           9.7214328390425847E-04    1.7102071336980831E-05    1.3908836263630124E-04
          -2.2137475272172593E-03   -3.1843396269028189E-04    5.8546214141665315E-04
          -1.1041600877194225E-04    9.8884907036537171E-05    1.7847012480328499E-04
          -4.3223671289071251E-04   -2.0326555856277072E-04    1.2693811996607369E-03
           2.9218609475495881E-04   -5.3018668419818355E-04   -7.8162333054598095E-04
           1.0844601108285982E-04    2.6088180359127742E-04    1.5167688449262679E-04
           6.1067149763613675E-04    4.9994756570387734E-04   -1.4540386520713473E-04
           2.3519481803063744E-04    1.3666702452915587E-04    9.3240281757348540E-04
           9.7745865469096353E-05    8.7412045360141718E-05    5.7124791663748722E-06
           1.3065039188833968E-03    4.5807819179610157E-04    3.4682790493013100E-05
           6.7525659825014086E-05    4.5479579582023065E-04   -1.0414496140493401E-03
           5.1513662528139209E-05   -1.6073161167152051E-04    8.1740915681840465E-05
           7.2568715983851897E-04   -4.0565812723291408E-04   -2.1635588630727413E-04
           5.6294653498476345E-04    1.0902849211262742E-03   -3.7027803577770223E-04
          -2.3526215601781620E-04    1.4131862067798506E-05   -5.5707413712645821E-05
          -9.1006796100758181E-05    1.7694856741335454E-04   -1.0010344156865731E-03
          -7.5597653501290963E-04   -9.8656260004060755E-04   -7.6812896816494251E-04
           1.9411335055690730E-05    1.1176161679605283E-04   -9.1148713094077536E-05
          -1.4034400800140194E-03    7.0841834657071954E-04    7.7150966300381307E-04
          -2.0896131649722073E-04   -1.1956019593566103E-04   -1.5221265634631509E-03
           6.5935860704047772E-05    3.2424613754603489E-05   -1.0698695693429532E-04
          -1.0019835743244789E-03    6.8916365166929049E-04    4.5694085011370006E-04
           3.2716449205558043E-04   -8.1613456751968461E-04   -7.7660856882864849E-04
          -1.8100090108766226E-04   -1.2376049261246684E-04   -3.3336986998883638E-05
           1.6497958373149692E-03    9.4818056825231800E-04   -7.8873221695101997E-04
           9.4340390226861317E-05    3.5969721455102275E-04    1.7734882537414564E-03
           8.4534627298271054E-05   -1.9001750154791968E-04   -1.1469232292280921E-04
           4.0088034049016487E-04   -5.8248282805755948E-05    8.4863638883552167E-04
           2.0347535913696637E-04   -1.0840058043198005E-04   -9.9458107137587572E-04
          -3.8990732590783050E-06   -2.4364648749480530E-05    3.0696113151595868E-04
           9.9833561275885596E-04   -4.9592275350638228E-04   -4.6238838784203143E-04