 # Version information for this restart file 
 # current date 2024-07-07 15:39:01.464
 # current working dir /scratch-grete/usr/nichdsas/test_parser/cp2k-2024.1/md_nvt_low
 # Program compiled at                                       2024-05-28 17:35:28
 # Program compiled on                                                          
 # Program compiled for                                                   x86_64
 # Source code revision number                                                  
 &GLOBAL
   PRINT_LEVEL LOW
   PROJECT_NAME "aiida"
   RUN_TYPE MD
 &END GLOBAL
 &MOTION
   &MD
     ENSEMBLE NVT
     STEPS 5
     TIMESTEP  4.9999999999999994E-001
     STEP_START_VAL 5
     TIME_START_VAL  2.4999999999999996E+000
     ECONS_START_VAL -1.1028095256884490E+003
     TEMPERATURE  3.0000000000000000E+002
     &THERMOSTAT
       TYPE NOSE
       REGION MASSIVE
     &END THERMOSTAT
     &AVERAGES T
       &RESTART_AVERAGES
         ITIMES_START 1
         AVECPU  9.5694920731009923E+000
         AVEHUGONIOT  0.0000000000000000E+000
         AVETEMP_BARO  0.0000000000000000E+000
         AVEPOT -1.1033662327812965E+003
         AVEKIN  2.8308815512455660E-001
         AVETEMP  3.1038910593732930E+002
         AVEKIN_QM  0.0000000000000000E+000
         AVETEMP_QM  0.0000000000000000E+000
         AVEVOL  1.2928894580884409E+004
         AVECELL_A  2.3470398570439684E+001
         AVECELL_B  2.3470398570439684E+001
         AVECELL_C  2.3470398570439684E+001
         AVEALPHA  9.0000000000000000E+001
         AVEBETA  9.0000000000000000E+001
         AVEGAMMA  9.0000000000000000E+001
         AVE_ECONS -9.0405807187737927E-002
         AVE_PRESS  0.0000000000000000E+000
         AVE_PXX  0.0000000000000000E+000
       &END RESTART_AVERAGES
     &END AVERAGES
   &END MD
 &END MOTION
 &FORCE_EVAL
   METHOD QS
   &DFT
     BASIS_SET_FILE_NAME BASIS_MOLOPT
     POTENTIAL_FILE_NAME GTH_POTENTIALS
     MULTIPLICITY 1
     CHARGE 0
     &SCF
       MAX_SCF 30
       EPS_SCF  1.0000000000000001E-005
       SCF_GUESS ATOMIC
       IGNORE_CONVERGENCE_FAILURE T
       &OT T
         MINIMIZER DIIS
         PRECONDITIONER FULL_SINGLE_INVERSE
       &END OT
       &OUTER_SCF T
         EPS_SCF  9.9999999999999995E-007
         MAX_SCF 5
       &END OUTER_SCF
       &PRINT
         &RESTART OFF
         &END RESTART
       &END PRINT
     &END SCF
     &QS
       EPS_DEFAULT  1.0000000000000000E-008
       EXTRAPOLATION ASPC
       METHOD GPW
     &END QS
     &MGRID
       CUTOFF  4.0000000000000000E+002
     &END MGRID
     &XC
       DENSITY_CUTOFF  1.0000000000000000E-010
       GRADIENT_CUTOFF  1.0000000000000000E-010
       TAU_CUTOFF  1.0000000000000000E-010
       &XC_FUNCTIONAL NO_SHORTCUT
         &PBE T
         &END PBE
       &END XC_FUNCTIONAL
       &VDW_POTENTIAL
         POTENTIAL_TYPE PAIR_POTENTIAL
         &PAIR_POTENTIAL
           R_CUTOFF  1.6000000000000000E+001
           TYPE DFTD3
           PARAMETER_FILE_NAME dftd3.dat
           REFERENCE_FUNCTIONAL "PBE"
         &END PAIR_POTENTIAL
       &END VDW_POTENTIAL
     &END XC
     &POISSON
       PERIODIC XYZ
     &END POISSON
   &END DFT
   &SUBSYS
     &CELL
       A  1.2420000000000000E+001  0.0000000000000000E+000  0.0000000000000000E+000
       B  0.0000000000000000E+000  1.2420000000000000E+001  0.0000000000000000E+000
       C  0.0000000000000000E+000  0.0000000000000000E+000  1.2420000000000000E+001
       MULTIPLE_UNIT_CELL 1 1 1
     &END CELL
     &COORD
       O  3.8476523449571123E+000 -4.7572858050839546E+000  5.5115245845274767E+000
       H  4.1497688750467425E+000 -5.5056491468484250E+000  6.0683847935870450E+000
       H  3.0574142856891537E+000 -4.2852793714456974E+000  5.9390440531958131E+000
       O -3.5402253350684849E+000  1.7506229286990214E+000  4.2923541522524937E+000
       H -3.3923308488365973E+000  7.6122192084084495E-001  4.1612148599187373E+000
       H -3.6132926516188193E+000  1.8605078693837651E+000  5.2190171694537639E+000
       O  4.5456227369049049E+000  2.9364709654492800E+000 -7.1008090148461962E+000
       H  3.6179751341721222E+000  3.2240598201866164E+000 -6.7885720683933597E+000
       H  4.5034151434952845E+000  2.8172408121255965E+000 -8.0457501673143650E+000
       O -2.5785360701602467E+000 -1.3225011917193524E-001 -3.4094899453087093E+000
       H -2.0377144059978911E+000  4.1032370952125535E-001 -2.8178529424964234E+000
       H -1.9113812227585447E+000 -6.4750225922129667E-001 -3.9657431797304734E+000
       O -3.7612751781647003E+000 -7.7162625969845582E+000  5.6315818858479556E+000
       H -4.6675601840473373E+000 -7.4669052285251674E+000  5.9330779566098419E+000
       H -3.8356875331247600E+000 -7.5737707145210846E+000  4.5981656360934018E+000
       O -6.7019957337359388E+000 -8.2861220554711998E-002  2.3103323677972885E+000
       H -6.0574628097447851E+000 -4.0113626353006693E-001  2.9842795718341466E+000
       H -6.2720675019408159E+000  7.6721682191582641E-001  1.9953644491113720E+000
       O  4.0181391743713064E+000 -5.5759277303593526E+000 -4.2079929936792432E-001
       H  3.3115878232581895E+000 -5.6289378425867573E+000  2.7504291294838162E-001
       H  3.8885985801956631E+000 -4.6884479194353874E+000 -8.3151281881583228E-001
       O -2.6708576949909331E+000 -3.0839192551300623E+000 -1.2293555948736719E+000
       H -3.2784731009348751E+000 -2.4928517043320637E+000 -1.7005493999628776E+000
       H -2.1136787674197621E+000 -2.5088166924488675E+000 -6.1932268451512851E-001
       O  5.4469281151470756E+000 -3.1793901877087980E+000  3.0960552196850495E+000
       H  4.6376570933965109E+000 -3.2479162718423811E+000  3.6944993140113835E+000
       H  5.2230696006489650E+000 -2.9639622866542963E+000  2.1363158953303460E+000
       O  2.0184499198940511E+000  3.8060650714846536E+000 -6.6620655262876012E+000
       H  1.3770270881946494E+000  3.0724805897736558E+000 -6.8197760192857073E+000
       H  1.8113229813229745E+000  4.0875976326934023E+000 -5.7405793843037074E+000
       O  4.0538238544566187E+000 -3.8994257686877534E+000 -3.0621926940400246E+000
       H  3.2831921474224970E+000 -3.7755340300300415E+000 -3.6390884461175297E+000
       H  4.3321435234711609E+000 -2.9743342065726557E+000 -2.8927125128400060E+000
       O  1.9911703732456920E+000 -1.8367531062048386E+000  1.0233832764696520E+000
       H  1.6415785666694518E+000 -2.4879456056886631E+000  1.6750237694150678E+000
       H  1.6430063990315753E+000 -1.9673461191292334E+000  1.1436041735467097E-001
       O  7.2383887176274186E-001 -5.7477507718415870E+000 -5.0089689076247721E+000
       H  1.4318282157472311E+000 -6.3710100862529364E+000 -4.8600287924978192E+000
       H  4.2543137375775020E-001 -5.7398823571426920E+000 -5.9181545028360469E+000
       O -7.5227084346099913E+000 -8.6742981035856204E+000 -3.2517552226750568E+000
       H -7.8286284817215064E+000 -9.6036261441206818E+000 -3.1089855912073614E+000
       H -7.1226807184418721E+000 -8.4938123683083493E+000 -2.3915267525347672E+000
       O  2.9967200156559355E+000 -1.6392410905018666E+000  5.1746010777225155E+000
       H  3.8342030212752056E+000 -1.7514749930662519E+000  5.6695194537923514E+000
       H  3.2093996997923959E+000 -8.8513093132518850E-001  4.6032000637673951E+000
       O -9.3981066674306765E-002  1.8627605856179184E+000 -6.7010856623756991E+000
       H  2.4851356678245654E-001  1.0300354674734957E+000 -6.3180135358249601E+000
       H -7.9108504512277814E-003  1.7256021883189998E+000 -7.6424884312106229E+000
       O  1.3949219369907964E+000 -3.0865100270445947E+000  3.6637438783936584E+000
       H  2.0118709927544760E+000 -2.6436372138266897E+000  4.2977354609648293E+000
       H  1.0859631661237075E+000 -3.9138054749474041E+000  3.9689922570583596E+000
       O -2.3282066405595367E+000  2.7977935219202048E+000  2.2332326540692948E+000
       H -1.6086213624537957E+000  2.1098694689162745E+000  2.1098585646475172E+000
       H -2.7965698486218988E+000  2.5965913802415872E+000  3.0832178048295291E+000
       O  8.8204856087087868E-001 -6.5407493951289131E-001 -5.6103944774677315E+000
       H  1.7808054571721061E+000 -8.1324037281487049E-001 -6.0954143079316134E+000
       H  1.1758966985808987E+000 -2.4051657644856866E-001 -4.7397617571595205E+000
       O -1.1659508185836658E+000 -7.1870873916100619E-001  2.2045955911837034E-001
       H -1.0883294195555500E+000  2.3040193607122422E-001 -6.1035711710605137E-002
       H -9.9175182802153006E-001 -7.6019376872769484E-001  1.1521247065044211E+000
       O -3.8848294046916139E+000 -9.0050432615243388E+000 -3.1129051416291489E+000
       H -4.4951589798980685E+000 -8.2402528898188194E+000 -3.1462578685698115E+000
       H -2.9514136351878228E+000 -8.6631350126532904E+000 -3.1310574144614476E+000
       O  4.9788070674497451E+000  4.5789816263372218E+000  2.1732999987436963E+000
       H  4.5821871687594955E+000  4.0917957453971026E+000  1.4196794100544115E+000
       H  4.1990040773305601E+000  4.9855029389955314E+000  2.6443519348732027E+000
       O  4.2125979079902374E+000  1.0320643193079519E+000 -3.2075179558690210E+000
       H  4.6109829830420699E+000  9.2892321051861126E-001 -4.1218526723301387E+000
       H  4.4390493108605789E+000  1.9775575957021033E-001 -2.6646120146673202E+000
       O -5.2049429059744057E+000 -6.3435776378949154E+000 -2.6938083039228946E+000
       H -5.4127114218264003E+000 -6.0011639282017235E+000 -1.7785273078979407E+000
       H -5.9895092842606399E+000 -6.0787615532548207E+000 -3.2115273884013891E+000
       O  4.8297826545058156E+000 -2.1460301274331335E+000  6.9148834614081867E-001
       H  5.1654009966326031E+000 -1.3040323033120915E+000  1.1898607007938387E+000
       H  3.8455341599819142E+000 -2.0002332379073775E+000  8.3128074694201126E-001
       O  2.1233117341287913E+000  9.4619723053581417E-001  1.6988741636283007E+000
       H  2.8186775415154566E+000  1.5138894727197945E+000  1.3030530792811128E+000
       H  2.3787825058190144E+000  7.7819659130711635E-002  1.3043882201252934E+000
       O -5.7551611465470520E+000 -5.0952218493453687E+000 -3.6631930630238296E-001
       H -6.6280136223405099E+000 -5.4636281708206935E+000 -2.4921708320056760E-001
       H -5.9110110075797877E+000 -4.1636564688783002E+000 -6.3274687694898779E-001
       O -4.8451714031716779E+000  4.6295334585666188E+000  2.6237514891609672E+000
       H -5.8338666198480951E+000  4.7080363053695962E+000  2.3479137323581836E+000
       H -4.7458081160502399E+000  3.7721490593574116E+000  2.2497939500698916E+000
       O  5.4878855705818737E+000  8.5034780893516038E-001 -5.6028979824573968E+000
       H  6.3743017184711874E+000  1.1349259102086751E+000 -5.4292715072625697E+000
       H  5.0537462814948348E+000  1.4711340892448159E+000 -6.2287574403135952E+000
       O  7.4203322552736750E-001 -1.9094702528728120E+000 -1.2632027025492700E+000
       H  4.4137034539481340E-001 -2.7336832765823158E+000 -1.7944160149765260E+000
       H -4.2908696079471599E-002 -1.6733857432078956E+000 -7.3041999635127097E-001
       O  3.8980938339558886E+000  2.6153010043282698E+000  9.9147125366513003E-002
       H  4.6403480981779008E+000  2.4145249094265981E+000 -4.7663747629381736E-001
       H  3.2891603467418249E+000  3.2296918292348691E+000 -4.2733128908356421E-001
       O -1.0877513901562315E+000 -1.3777923395916085E+000  2.9398761220063148E+000
       H -3.4537839568494016E-001 -2.0215520765893458E+000  3.1568884354793081E+000
       H -1.8639888134401161E+000 -1.9985169512900769E+000  3.1409485824666783E+000
       O  2.0638896927987949E+000 -5.6291011757085823E+000  1.3589710299735223E+000
       H  1.2241783584131645E+000 -6.1510749855615456E+000  1.2679508744038537E+000
       H  2.3326177588319656E+000 -5.9010392283195925E+000  2.2929757835968836E+000
       O -6.3569086027817512E-001 -3.8243248754036347E+000 -2.8366279595407016E+000
       H -1.5662129729812380E+000 -3.7833270203506562E+000 -2.5291166488599699E+000
       H -4.9298200742203857E-001 -4.5871868985511393E+000 -3.4240910833449365E+000
       O -5.2851512109669345E+000  2.0768708245480139E+000  1.4481115858432168E+000
       H -4.4422170889683636E+000  1.9152768632761061E+000  1.8936235989150672E+000
       H -5.1150416755793886E+000  1.9171778267921757E+000  4.0737244013754287E-001
       O  1.9669863117946247E+000 -3.4196229492762322E+000 -5.2669059658918691E+000
       H  1.3750718858907991E+000 -4.1805080769640135E+000 -5.0353539264655325E+000
       H  1.2819814803749816E+000 -2.7503526181906661E+000 -5.5587757658794841E+000
       O -1.1889920589633556E+000  3.9307389053071491E+000 -3.3708834015967675E+000
       H -1.1787154565301978E+000  3.9419830076554137E+000 -4.3411649698330335E+000
       H -7.1845294145304561E-001  4.6814274379307941E+000 -2.9586563662148948E+000
       O -5.4351472245047594E+000 -5.0029878701923396E+000  4.2721509154917490E+000
       H -6.1341561959028761E+000 -4.5172180492452503E+000  3.7438348610105896E+000
       H -4.8014611150820423E+000 -5.3898970282243610E+000  3.6908832263974154E+000
       O  2.9745722732030107E+000  5.8010080878297083E+000  3.5990243212730393E+000
       H  3.3436117805169898E+000  6.5046387713713347E+000  4.1958504008001265E+000
       H  2.4290421504519957E+000  5.1852393010600579E+000  4.1434139300301887E+000
       O -4.0472619461952997E+000  1.5479345625669205E+000 -5.0681202895162496E+000
       H -3.5802922676943965E+000  7.9842284342184222E-001 -4.5877340538627882E+000
       H -4.0205428252834920E+000  2.3137535160455656E+000 -4.4776027916633057E+000
       O  3.4766154248639318E+000  5.9361944393506150E-001  4.0095344644104003E+000
       H  2.8661401107298743E+000  5.7444569001116375E-001  3.2024647194268971E+000
       H  4.3028271425506057E+000  4.3761810507559223E-001  3.5393745881632701E+000
       O -4.6151927577920695E+000 -1.0200372537614297E+000  3.9979255354638505E+000
       H -5.3499961071482973E+000 -1.2503060327899449E+000  4.6822322626441748E+000
       H -4.1870833766621489E+000 -1.9226608080819667E+000  3.7843979120418121E+000
       O -2.1567122495703195E-001  1.2745000876647277E+000  3.1331105884015793E+000
       H  6.7635956277770670E-001  1.3931430519330286E+000  2.7218210449620774E+000
       H -4.1944694327972681E-001  2.8540357909495717E-001  3.0672267493637455E+000
       O -1.9871618532263728E+000  5.0471641083507146E+000  5.9072481891127848E-001
       H -2.2950991526758902E+000  4.1788806370792413E+000  9.8617600529457028E-001
       H -2.6184585947802352E+000  5.7603568381611758E+000  7.7989576221775136E-001
       O -1.2975881417307353E+000 -1.8959862203527649E+000 -4.9488676293755223E+000
       H -8.4447962645445407E-001 -2.4260000461612559E+000 -4.2026563070401650E+000
       H -5.1753501843375405E-001 -1.3190541366490085E+000 -5.4058824529296974E+000
       O -5.1474696587115094E+000  1.8163602675673474E+000 -1.2949290984394666E+000
       H -4.6896927580947017E+000  2.4822427272933121E+000 -1.8862938400147151E+000
       H -5.3630314051647012E+000  1.1054334265096273E+000 -1.9187615885832865E+000
       O -7.3725434742878351E+000 -1.2310127856406738E+000 -1.9463011288178229E+000
       H -6.4119126325068505E+000 -1.1004746924920283E+000 -2.1520263421257173E+000
       H -7.4688554267793608E+000 -1.5237200531108166E+000 -9.9634737929803152E-001
       O -4.6255626947361517E-001  1.4130274566735359E+000 -1.7108565841574004E+000
       H -7.8643554080037925E-001  2.1962037671321766E+000 -2.1750997913423267E+000
       H  2.6310886007775058E-001  9.6355335386835195E-001 -2.2298453468219610E+000
       O -3.7631700678171960E-002 -6.5074356495994170E+000 -1.0950836222099001E+000
       H  9.8611690372127636E-003 -5.5508987336300040E+000 -1.1092574073611745E+000
       H -8.2215615804538833E-001 -6.7760983077920374E+000 -4.1315389335005814E-001
       O  5.7092953168077063E+000 -1.6930826194698507E+000  6.0203052268440977E+000
       H  6.0008777991717643E+000 -2.4972487317509229E+000  6.4746994926580568E+000
       H  5.7439407743611701E+000 -9.4493709210745280E-001  6.6246631099001050E+000
       O -2.6041076458987695E+000 -5.7826158332352753E+000 -4.2098624993981923E+000
       H -2.6171910552276638E+000 -6.6894846050515238E+000 -4.5501195654889779E+000
       H -3.5116730731288572E+000 -5.4989318627693748E+000 -3.8835192493213708E+000
       O -4.9429946891799501E+000 -1.4023936323824715E+000 -3.2393776540057369E+000
       H -4.9684997748230124E+000 -2.2666220860031236E+000 -3.7719727180941720E+000
       H -4.0141724213104251E+000 -1.0704405747990835E+000 -3.2380430366836555E+000
       O  2.2895911045899342E+000 -8.0798070753155606E+000 -1.2247156520413440E+000
       H  1.2856438639152103E+000 -8.1069476688888127E+000 -1.1243076406328441E+000
       H  2.5362593229358863E+000 -7.1181913378789048E+000 -1.1713415255753985E+000
       O  6.7772676934842657E+000 -3.8953014887071382E+000 -5.3356045359030659E+000
       H  7.6152664451632335E+000 -4.1737054778426605E+000 -5.8350922533497220E+000
       H  6.0291766242350526E+000 -4.4270201087656105E+000 -5.6850555948126678E+000
       O -3.4356171039261363E-001  4.9716797630947402E+000  2.9576523493804987E+000
       H -6.6110926145608517E-001  4.2334406802270435E+000  3.4704273464959616E+000
       H -7.2136220206299595E-001  4.8440026843339634E+000  2.0571830811296041E+000
       O -2.8150516805287289E+000 -3.9995836216161278E+000  6.2244319342278276E+000
       H -2.4306786593802054E+000 -4.5870032088842585E+000  6.9104099631806353E+000
       H -2.4092687081264956E+000 -3.1557886888084519E+000  6.3980625027960869E+000
       O -2.7965980948775915E+000 -3.4832106743804720E+000  3.4713732603642087E+000
       H -3.0913923244758941E+000 -3.8818847039106519E+000  4.2789501870483271E+000
       H -3.2323225283815611E+000 -4.0479081706502500E+000  2.8242419017607054E+000
       O  2.4871837245327986E+000  4.6840691935262679E+000 -3.9634428257599357E+000
       H  3.3977920886867827E+000  4.5378401690626751E+000 -3.6105312751833645E+000
       H  1.9752092419755845E+000  4.5646399046261052E+000 -3.0919996844416713E+000
       O  1.6536854515617117E+000  5.4820618014467422E-002 -3.1023547997480505E+000
       H  1.6049118720593685E+000 -5.9146989847131359E-001 -2.3646874318393589E+000
       H  2.4635680801736357E+000  5.6108543631787255E-001 -3.0510933207563995E+000
       O -1.2128596315819560E+000 -8.1736108386126425E+000 -6.3553779594308288E+000
       H -8.9701002960674825E-001 -9.0549708078445743E+000 -6.5665804200111992E+000
       H -2.1546148637623452E+000 -8.0407590797834416E+000 -6.5301191355941937E+000
       O -4.6762851948539785E-001  8.3701641440729055E+000  6.0210616779600856E-001
       H  3.3708755245952149E-001  8.2868070139897867E+000  1.1589118664265126E+000
       H -1.2126860260781887E+000  8.0371558675147146E+000  1.1271839674367261E+000
       O  5.8900381761714753E+000 -6.7862394276443325E+000 -6.6126980627013525E+000
       H  5.4363292295434977E+000 -7.5720762871660492E+000 -6.9478539003220749E+000
       H  6.1310034891222784E+000 -6.1526391986164946E+000 -7.3565409001072606E+000
       O -3.5556832836198599E-001 -5.2572702952809376E+000  4.6698016653860357E+000
       H -3.7629095652461836E-001 -6.0985178307570438E+000  4.0714635577627130E+000
       H -1.2809813191995332E+000 -5.1437750820949732E+000  4.9671452953012354E+000
       O -3.8179546017830912E+000 -5.5296910459424620E+000  1.7936571244063428E+000
       H -4.0725918834717598E+000 -6.4204998325706093E+000  2.1294647572842940E+000
       H -4.3943224119084983E+000 -5.2907483180562043E+000  1.0079043582546867E+000
     &END COORD
     &VELOCITY
        -2.0012457712227617E-004 -7.9571378317521964E-005  2.9984680829201392E-005
        -1.2494326912729440E-003  1.1976358492798472E-003  1.2820396974112037E-003
        -4.4581629913622347E-004  4.0460429825206278E-004  6.8472233715132706E-004
         1.0549626124893230E-004  7.3251624078132820E-005  2.4124410733520256E-005
        -8.3822967140434750E-004 -1.2966589415713424E-003  3.2445663631070339E-004
        -1.9014667384383393E-004 -1.4497319833484861E-003  2.8895298387349304E-005
        -4.2753793584990931E-004  6.2048125745541691E-005  4.5688621902502085E-005
        -9.3824598421590548E-004 -2.3104760137782290E-004  2.9482832750063978E-005
        -1.0942714383800971E-006  4.4090542283350373E-004 -7.4329891284548430E-004
        -1.0360820733737066E-004 -5.0481769401759693E-004  6.7921451400112184E-005
         4.2370666798246685E-004  4.1257605661508892E-004  8.7174139320897459E-004
        -6.7007680068975834E-004 -7.8640944270257291E-004 -7.7067966683925647E-004
         1.8778953026345763E-005 -8.2502210955844905E-005 -1.0697408282083459E-005
        -7.2986779279569361E-004 -8.5038040261887278E-004 -1.0345005587405545E-003
         2.0557612458838021E-004  8.6712430126000494E-004 -4.0570711131046688E-005
         2.0269724882310269E-004 -1.2591047106646380E-004 -1.1454838595221926E-004
        -3.2505219900495573E-004  9.2265653150630045E-004 -7.5986178499194560E-004
        -2.3979482916009753E-004  5.8319215315636645E-004  6.3751357015557253E-004
         1.4167735835400751E-004  8.5198169301555976E-005 -1.5080597830355647E-004
        -5.0020291846049076E-004 -2.0188259888435575E-004 -3.8674864928634346E-004
        -4.2863288677165212E-004  1.4758026323208853E-003 -2.7018917688962328E-004
        -3.5182620899958445E-005 -5.2582012811297981E-005 -7.9424172303942426E-005
        -4.3295584940239744E-004 -7.7297278965717052E-004  9.5087227751621537E-004
         1.3198930820414857E-003  1.7779016945763655E-003 -8.5954129901122335E-004
        -1.8825441256352312E-004 -2.0092650417224321E-004 -7.4859477712461761E-005
        -8.4524694295474209E-004  9.8994922664009331E-005  9.4961113327510010E-004
        -8.7648124133581410E-004  1.4698840724140924E-003  5.6799906675318828E-004
         1.9318639542679464E-004  7.3837554489719390E-005 -3.2883599375908422E-004
        -2.0727729023293471E-004 -6.5245698911314541E-005 -2.2077806430672312E-004
        -2.6692541353034115E-004  3.7201678378598850E-004 -5.1265235452561942E-004
        -1.6997503659290251E-004 -1.2601929953793767E-004 -7.0846008298710222E-005
         1.3284692510428782E-003 -1.1566855222467558E-003  1.2963541455543440E-003
         1.8358417317812021E-004  5.5717266203172174E-004  1.8297220106322334E-003
         2.8854906012308460E-004  1.5942968516325710E-004  2.3883452975990838E-005
         1.4641944034359475E-003 -2.3219002347059448E-004  3.9384548615947399E-004
         1.8791161586214378E-004 -1.2764448551124445E-003  9.4096533122507210E-004
        -2.2278965238518072E-004 -2.3363024497718286E-005  6.9919417658365255E-005
        -1.8711046744424579E-004 -1.4133671376253356E-003 -6.8892105078369680E-004
        -6.1361323356591026E-004 -8.3018614212925987E-004 -2.7898898822754876E-004
        -1.2103101465669673E-004  5.0136547238537141E-005 -2.5304864453788310E-004
         8.0833887502955112E-004 -1.4567722240244662E-004 -7.8573167136527784E-004
         3.9169095423223586E-004  1.8949800229262834E-003 -6.4986933576277801E-004
        -2.5356535920397177E-004 -3.8567965555307406E-004  1.1959049949478895E-004
        -1.6054445758807695E-004  8.4415838961640437E-004 -3.5436954308767492E-004
         9.5749286765083085E-004 -3.8734843031405005E-004 -5.2143405988562736E-004
         1.5836997963398973E-005  2.9523539023248025E-005 -2.2762706719190728E-004
         3.3713582175908397E-004 -1.0214867359718326E-003  3.0843748080062777E-004
         6.6848039721474032E-004 -5.5696762203248944E-004 -9.7655063770845458E-004
         2.7581393130460252E-004 -2.3954433423289996E-005  9.9829319619149268E-006
         2.1507978189304561E-004  6.0158302101480658E-004 -2.0309802615266751E-004
        -6.2815201554758068E-004  6.6585856446688254E-005  2.9269218672851860E-004
         1.5161557403436858E-005 -1.4235920621579357E-004 -7.3358069965944237E-005
         2.9174676130438742E-005 -1.2451239915036119E-004 -1.0954389365184676E-003
        -6.4081887137191508E-004  6.7521798796766017E-005  2.4767619726068788E-004
         1.9368049307248717E-004  1.5527226759325420E-004 -2.0611599133588173E-004
         5.6212934508131029E-004 -1.8580641156745942E-005  2.9051806435347798E-004
        -4.5662686315375210E-004 -2.8489762092974343E-004  3.8613082686092531E-004
         3.7219316506015250E-004 -1.4784597716515959E-005 -4.8709689120359634E-004
         8.7855513279403742E-004 -5.7150845509384724E-004  2.8094706820466699E-004
        -1.0255424660599434E-003  3.3142812866956940E-004 -9.2119866948710375E-005
         3.5140057237554844E-005  1.1592927265026728E-004  3.4254716574458918E-004
        -6.0730937616207653E-005  1.3101058555604281E-003  1.3054244301525658E-003
        -7.1455406610009269E-004  1.2949623539262136E-003 -4.5191230726186286E-005
        -1.2443961589066247E-005  3.9489497656719442E-004  2.3540490481196026E-004
         1.5807396014139069E-004  1.5255011939622004E-004 -5.6022801045830801E-004
        -4.8180591974217925E-006  1.4884287331316149E-003 -4.8909186297730624E-004
         8.1484251229798407E-005  3.7523203179357229E-005  1.4211934071801569E-004
        -4.6294118380034136E-005  1.3499501394693145E-003 -1.4359121912931889E-003
         3.6949290660608558E-004  3.7037136337156302E-004  1.1894572821673939E-003
         1.1723794725918232E-004  2.5595055888521334E-005 -2.5822562056345148E-004
        -5.1149166338665647E-004  1.7717807972384752E-003  1.3155325530758938E-004
        -5.5915549479401516E-005  2.7700843169550999E-004 -1.2984843823733675E-003
         4.4386936314193101E-005  8.7063179974017517E-005 -8.4051975114724303E-005
         1.5854446273312910E-004  1.4196030955349061E-003  4.1423559077748590E-004
        -8.2568262858573555E-004  1.3066522897413580E-005  7.3550083364904719E-004
         2.8249492069625523E-004  9.2696998733363584E-005  4.1579831376002285E-005
         1.1918530574611291E-003  5.2545375675061708E-004  6.4107147578782667E-004
         7.7831368080201913E-004 -4.0489896401153303E-004  2.1577512948165958E-004
         1.0325188633542224E-004 -8.3728802066765050E-007 -9.3386763041373538E-005
         2.6655655317267421E-004 -5.8591436858440561E-004  1.4192059672403075E-004
         5.0056872195184223E-004  1.9022373351223248E-004  1.1291542687150587E-003
         5.7710316645736915E-005 -8.1844361357670997E-005 -1.5849162918011298E-004
        -4.0579703917305195E-005 -1.7009555938836716E-004  1.1201631343425414E-004
         7.0935852562686798E-004  1.6057848093654935E-003 -8.1897947344872733E-005
        -5.2160952406952066E-004 -7.1201826659345548E-005 -1.8851119885664728E-004
         5.4257466146679463E-004 -6.1295098109033573E-004 -1.4755575385146185E-003
         6.8558528649042053E-004  3.7940100454479300E-004  1.0546636553471773E-003
         1.2899360670399495E-004  1.1106803603315831E-004  1.1994798277259655E-004
         2.4970357440383021E-004 -7.1161487561551147E-004  1.2905617084066376E-003
        -7.8944834913924236E-004 -3.6580046230831175E-004  3.4135177229655184E-004
        -6.8838767688063354E-005 -1.0369498284239710E-004  3.1476816140590648E-004
        -8.2012046147882418E-005 -1.5696848866635752E-004  5.1175461423473612E-005
        -1.3006397561678262E-003 -4.2439327326798730E-004  6.6945482093525195E-004
         2.2999165746312482E-004 -2.1781942443235356E-004 -1.6224474513353915E-004
        -4.4588258655351001E-004  8.2724303898399243E-004  8.2051859978127511E-004
        -3.7518428227436349E-005  2.7845248719831646E-004 -1.2953431873689676E-003
        -1.9169399717209351E-004  3.7486959523505613E-004 -6.9992392669495027E-005
         9.7214328390428416E-004  1.7102071336990985E-005  1.3908836263630184E-004
        -2.2137475272172641E-003 -3.1843396269030277E-004  5.8546214141667115E-004
        -1.1041600877194559E-004  9.8884907036550385E-005  1.7847012480332150E-004
        -4.3223671289073506E-004 -2.0326555856277294E-004  1.2693811996607495E-003
         2.9218609475497735E-004 -5.3018668419820719E-004 -7.8162333054603603E-004
         1.0844601108286700E-004  2.6088180359128837E-004  1.5167688449260679E-004
         6.1067149763608796E-004  4.9994756570387658E-004 -1.4540386520715254E-004
         2.3519481803064413E-004  1.3666702452914367E-004  9.3240281757352226E-004
         9.7745865469119040E-005  8.7412045360166235E-005  5.7124791663838041E-006
         1.3065039188834380E-003  4.5807819179613540E-004  3.4682790492981380E-005
         6.7525659825027855E-005  4.5479579582022919E-004 -1.0414496140493069E-003
         5.1513662528147923E-005 -1.6073161167153450E-004  8.1740915681817155E-005
         7.2568715983852786E-004 -4.0565812723293560E-004 -2.1635588630726930E-004
         5.6294653498475825E-004  1.0902849211262573E-003 -3.7027803577771351E-004
        -2.3526215601780314E-004  1.4131862067793585E-005 -5.5707413712649459E-005
        -9.1006796100724963E-005  1.7694856741330735E-004 -1.0010344156865497E-003
        -7.5597653501293923E-004 -9.8656260004061969E-004 -7.6812896816498446E-004
         1.9411335055685749E-005  1.1176161679606488E-004 -9.1148713094084489E-005
        -1.4034400800140259E-003  7.0841834657071705E-004  7.7150966300378303E-004
        -2.0896131649724415E-004 -1.1956019593567467E-004 -1.5221265634631346E-003
         6.5935860704059441E-005  3.2424613754602744E-005 -1.0698695693430366E-004
        -1.0019835743244759E-003  6.8916365166928441E-004  4.5694085011367956E-004
         3.2716449205558948E-004 -8.1613456751969296E-004 -7.7660856882869078E-004
        -1.8100090108766592E-004 -1.2376049261251360E-004 -3.3336986998899698E-005
         1.6497958373149519E-003  9.4818056825231279E-004 -7.8873221695097237E-004
         9.4340390226864976E-005  3.5969721455104096E-004  1.7734882537414134E-003
         8.4534627298262529E-005 -1.9001750154791855E-004 -1.1469232292280195E-004