 # Version information for this restart file 
 # current date 2025-02-11 11:16:13.058
 # current working dir /mnt/lustre-grete/usr/u12591/cp2k_parser_tests/cp2k-2025.1/geo_opt_medium
 # Program compiled at                              Tue Jan  7 11:11:50 CET 2025
 # Program compiled on                                                  glogin11
 # Program compiled for                                                    local
 # Source code revision number                                       git:9635df4
 &GLOBAL
   PRINT_LEVEL MEDIUM
   PROJECT_NAME "aiida"
   RUN_TYPE GEO_OPT
 &END GLOBAL
 &FORCE_EVAL
   METHOD QS
   &DFT
     BASIS_SET_FILE_NAME BASIS_MOLOPT
     POTENTIAL_FILE_NAME GTH_POTENTIALS
     &QS
       EPS_DEFAULT  1.0000000000000000E-008
       EXTRAPOLATION PS
       EXTRAPOLATION_ORDER 3
     &END QS
     &MGRID
       NGRIDS 4
       CUTOFF  2.8000000000000000E+002
       REL_CUTOFF  3.0000000000000000E+001
     &END MGRID
     &XC
       DENSITY_CUTOFF  1.0000000000000000E-010
       GRADIENT_CUTOFF  1.0000000000000000E-010
       TAU_CUTOFF  1.0000000000000000E-010
       &XC_FUNCTIONAL NO_SHORTCUT
         &PBE T
         &END PBE
       &END XC_FUNCTIONAL
     &END XC
     &POISSON
       POISSON_SOLVER MT
       PERIODIC NONE
     &END POISSON
   &END DFT
   &SUBSYS
     &CELL
       A  4.0000000000000000E+000  0.0000000000000000E+000  0.0000000000000000E+000
       B  0.0000000000000000E+000  4.0000000000000000E+000  0.0000000000000000E+000
       C  0.0000000000000000E+000  0.0000000000000000E+000  4.7371660000000011E+000
       PERIODIC NONE
       MULTIPLE_UNIT_CELL 1 1 1
     &END CELL
     &COORD
       H  2.0000000001378408E+000  2.0000000001378426E+000  2.7290247583909104E+000
       H  2.0000000001378382E+000  2.0000000001378404E+000  2.0081412425757068E+000
     &END COORD
     &KIND "O"
       BASIS_SET "DZVP-MOLOPT-SR-GTH"
       POTENTIAL "GTH-PBE-q6"
     &END KIND
     &KIND "H"
       BASIS_SET "DZVP-MOLOPT-SR-GTH"
       POTENTIAL "GTH-PBE-q1"
       &POTENTIAL
         1
           2.0000000000000001E-001 2 -4.1789004399999996E+000  7.2446330999999997E-001
         0
         # Potential name: GTH-PBE-Q1 for element symbol: H
         # Potential read from the potential filename: GTH_POTENTIALS
       &END POTENTIAL
     &END KIND
     &TOPOLOGY
       NUMBER_OF_ATOMS 2
       MULTIPLE_UNIT_CELL 1 1 1
     &END TOPOLOGY
   &END SUBSYS
 &END FORCE_EVAL
