 # Version information for this restart file 
 # current date 2021-04-19 13:45:46.151
 # current working dir /user/pubo1141/simulations/aiida_tests/cell_opt_spgr
 # Program compiled at                              Fri Feb 26 19:13:16 CET 2021
 # Program compiled on                                                   hpcl001
 # Program compiled for                                            carl-mkl-ompi
 # Source code revision number                                       git:122ed37
 &GLOBAL
   PRINT_LEVEL  MEDIUM
   PROJECT_NAME aiida
   RUN_TYPE  CELL_OPT
 &END GLOBAL
 &MOTION
   &CELL_OPT
     OPTIMIZER  BFGS
     MAX_ITER  100
     MAX_FORCE     1.9000000000000001E-05
     STEP_START_VAL  3
     KEEP_SPACE_GROUP  T
     TYPE  DIRECT_CELL_OPT
     &BFGS
     &END BFGS
     &PRINT
       &CELL  ON
       &END CELL
     &END PRINT
   &END CELL_OPT
 &END MOTION
 &FORCE_EVAL
   METHOD  QS
   STRESS_TENSOR  ANALYTICAL
   &DFT
     BASIS_SET_FILE_NAME BASIS_MOLOPT
     BASIS_SET_FILE_NAME BASIS_MOLOPT_UCL
     POTENTIAL_FILE_NAME GTH_POTENTIALS
     &SCF
       MAX_SCF  150
       EPS_SCF     9.9999999999999995E-07
       SCF_GUESS  RESTART
       &MIXING  T
         METHOD  BROYDEN_MIXING
         ALPHA     2.9999999999999999E-01
         NBUFFER  20
       &END MIXING
     &END SCF
     &QS
       EPS_DEFAULT     1.0000000000000000E-08
     &END QS
     &MGRID
       NGRIDS  5
       CUTOFF     6.0000000000000000E+02
       REL_CUTOFF     1.0000000000000000E+02
     &END MGRID
     &XC
       DENSITY_CUTOFF     1.0000000000000000E-10
       GRADIENT_CUTOFF     1.0000000000000000E-10
       TAU_CUTOFF     1.0000000000000000E-10
       &XC_FUNCTIONAL  NO_SHORTCUT
         &PBE  T
         &END PBE
       &END XC_FUNCTIONAL
     &END XC
     &POISSON
       PERIODIC  XYZ
     &END POISSON
     &KPOINTS
       SCHEME MONKHORST-PACK 6 6 6
     &END KPOINTS
   &END DFT
   &SUBSYS
     &CELL
       A     6.6388779351594369E+00    0.0000000000000000E+00    0.0000000000000000E+00
       B     3.3059931104744651E+00    5.7571995641334803E+00    0.0000000000000000E+00
       C     3.3059931104744651E+00    1.9087156832008576E+00    5.4315991336481781E+00
       PERIODIC  XYZ
       MULTIPLE_UNIT_CELL  1 1 1
       &CELL_REF
         A  2.7481331588149501E+001  0.0000000000000000E+000  0.0000000000000000E+000
         B  1.3811277364014602E+001  2.3758731580593000E+001  0.0000000000000000E+000
         C  1.3811277375898349E+001  7.9739259186933014E+000  2.2380711408952504E+001
         PERIODIC XYZ
         MULTIPLE_UNIT_CELL 1 1 1
       &END CELL_REF
     &END CELL
     &COORD
Cs    3.3127160390270918E+00    1.9164788118335845E+00    1.3578997834120445E+00
Cs    9.9381481170812762E+00    5.7494364355007539E+00    4.0736993502361329E+00
Cs    6.6254320780541835E+00    3.8329576236671690E+00    2.7157995668240891E+00
Sb    0.0000000000000000E+00    0.0000000000000000E+00    0.0000000000000000E+00
     &END COORD
     &KIND Cs
       BASIS_SET DZVP-MOLOPT-SR-GTH
       POTENTIAL GTH-PBE-q9
       &POTENTIAL
 3 6
  0.5400000000000000E+00 2  0.3331331676000000E+02 -0.2921216700000000E+01
 4
  0.4618956800000000E+00 2 -0.3322927000000000E+01  0.2455653380000000E+01
 -0.3170234880000000E+01
  0.3663586000000000E+00 2 -0.4950764050000000E+01  0.8403897700000000E+00
 -0.9943625900000000E+00
  0.7615019300000000E+00 1  0.1984072300000000E+00
  0.5970150300000000E+00 1 -0.1550566930000000E+01
         # Potential name:  GTH-PBE-Q9  for symbol:  CS
         # Potential read from the potential filename: GTH_POTENTIALS
       &END POTENTIAL
     &END KIND
     &KIND Sb
       BASIS_SET DZVP-MOLOPT-SR-GTH
       POTENTIAL GTH-PBE-q5
       &POTENTIAL
 2 3
  0.5900000000000000E+00 1  0.7928520840000000E+01
 3
  0.5561363600000000E+00 3  0.1430477900000000E+01  0.1261425990000000E+01 -0.9232335300000000E+00
 -0.3130133400000000E+01  0.2383778720000000E+01
 -0.1892065700000000E+01
  0.6227550700000000E+00 2  0.5614723300000000E+00  0.3048452200000000E+00
 -0.3606977300000000E+00
  0.8894857600000000E+00 1  0.2708686400000000E+00
         # Potential name:  GTH-PBE-Q5  for symbol:  SB
         # Potential read from the potential filename: GTH_POTENTIALS
       &END POTENTIAL
     &END KIND
     &TOPOLOGY
       NUMBER_OF_ATOMS  4
       MULTIPLE_UNIT_CELL  1 1 1
     &END TOPOLOGY
   &END SUBSYS
 &END FORCE_EVAL
