!!! Generated by AiiDA !!!
&FORCE_EVAL
   &DFT
      BASIS_SET_FILE_NAME BASIS_MOLOPT_UCL
      BASIS_SET_FILE_NAME BASIS_MOLOPT
      &KPOINTS
         FULL_GRID .FALSE.
         PARALLEL_GROUP_SIZE 0
         SCHEME MONKHORST-PACK 5 5 7
      &END KPOINTS
      &MGRID
         CUTOFF 200.0
         NGRIDS 4
         REL_CUTOFF 50.0
      &END MGRID
      &POISSON
         PERIODIC XYZ
         POISSON_SOLVER PERIODIC
      &END POISSON
      POTENTIAL_FILE_NAME GTH_POTENTIALS
      &PRINT
         &MO
            &EACH
               QS_SCF 1000
            &END EACH
            EIGENVALUES .TRUE.
         &END MO
      &END PRINT
      &QS
         EPS_DEFAULT 1e-8
         EXTRAPOLATION USE_GUESS
      &END QS
      ROKS .FALSE.
      &SCF
         ADDED_MOS 10
         EPS_SCF 1e-04
         MAX_SCF 250
         &MIXING
            ALPHA 0.01
            METHOD BROYDEN_MIXING
            NBUFFER 30
         &END MIXING
         SCF_GUESS RESTART
      &END SCF
      UKS .FALSE.
      &XC
         &XC_FUNCTIONAL PBE
         &END XC_FUNCTIONAL
      &END XC
   &END DFT
   METHOD Quickstep
   STRESS_TENSOR ANALYTICAL
   &SUBSYS
      &CELL
         A 16.273218457353 0.0             0.0            
         B -5.2244224653624 16.83395132236  0.0            
         C -4.3207234542062 4.6146955935651 12.175262387007
         PERIODIC XYZ
      &END CELL
      &COORD
Cs       3.5961599395503998       -3.3144428225089002        2.5744633573871001
Cs       1.7873692501676000        9.2062829772922008        4.2236025025056003
Cs      -1.0137862242178000        6.0095272161705999        7.7062160748500999
Cs       0.6850816221644800       10.0783189743030004       -0.8571920944656700
Cs       8.7212775841107000       17.7429467233800011        9.4476007913572992
Cs       1.7136239951515999        1.0830092708250001        5.8877538889828003
Cs       3.8033578936329002        3.9566904482555998        0.9580293757211200
Cs       4.5210457469487002       14.4387030892459993        7.6999247408673996
Cs       9.3317299638865006       12.3546965777659992        0.9592889382709900
Cs       4.3936065550835997       13.4254186068700001        2.5516491869947999
Cs      15.3046687183760000      -12.5923735141250006        7.5800877598643996
Cs      20.3718753248099986      -11.8247685700979996        2.5407741819787000
Cs      28.8004037607489991        0.8318432656812100        4.2531369222305004
Cs      17.4698719118370001      -11.9917579928929996       12.6717444852680003
Cs      16.8204859404479983       -7.4805169824808999        9.4682872169425991
Cs      22.3562338358070001        0.9600835704782700        9.4782183337283001
Cs      14.3540004249430009      -11.7196688451229996        2.5820369478926000
Cs      12.3114830070510006      -10.5674229607919994       11.3562857500569994
Cs      17.6284838848780012       -7.7481306941336001        4.2043624526903001
Cs      23.1372867317000015        0.6674750864255899        4.1965604025287000
Cs       8.4319168182968998       -7.5231370958190000        9.4373219648100992
Cs      12.4658900773980008       -7.3274056982228002        5.8778783448084004
Cs      12.8456462125390001       -4.4320397711558996       11.1596313315060005
Cs      18.3614021834490018        3.9710065697840999       11.1730351491719997
Cs       8.8940096036361993       -8.8213835656144006       -4.6065036010925002
Cs      15.3761014859039999       -3.2226970462800999        6.2133258113347001
Cs      20.9066205609439990        5.1908058804524000        6.2152963170205000
Cs      11.0566405893479995       -8.1735346834946991        0.4727667291948100
      &END COORD
      &KIND Cs
         BASIS_SET DZVP-MOLOPT-SR-GTH
         POTENTIAL GTH-PBE-q9
      &END KIND
   &END SUBSYS
&END FORCE_EVAL
&GLOBAL
   PROJECT aiida
   RUN_TYPE energy
   PRINT_LEVEL LOW
&END GLOBAL

