 # Version information for this restart file 
 # current date 2022-01-03 12:33:48.978
 # current working dir /scratch/usr/nichdsas/cp2k-parser-tests/8.2/md_nvt_medium
 # Program compiled at                              Tue Dec 21 15:57:32 CET 2021
 # Program compiled on                                                   glogin5
 # Program compiled for                                          hlrn-gompi-foss
 # Source code revision number                                       git:310b7ab
 &GLOBAL
   PRINT_LEVEL  MEDIUM
   PROJECT_NAME aiida
   RUN_TYPE  MD
 &END GLOBAL
 &MOTION
   &MD
     ENSEMBLE  NVT
     STEPS  5
     TIMESTEP     4.9999999999999994E-01
     STEP_START_VAL  5
     TIME_START_VAL     2.4999999999999996E+00
     ECONS_START_VAL    -1.1028095256884492E+03
     TEMPERATURE     3.0000000000000000E+02
     &THERMOSTAT
       TYPE  NOSE
       REGION  MASSIVE
     &END THERMOSTAT
     &AVERAGES  T
       &RESTART_AVERAGES
         ITIMES_START  1
         AVECPU     4.1834536227211359E+01
         AVEHUGONIOT     0.0000000000000000E+00
         AVETEMP_BARO     0.0000000000000000E+00
         AVEPOT    -1.1033662327812967E+03
         AVEKIN     2.8308815512455721E-01
         AVETEMP     3.1038910593732993E+02
         AVEKIN_QM     0.0000000000000000E+00
         AVETEMP_QM     0.0000000000000000E+00
         AVEVOL     1.2928894580884409E+04
         AVECELL_A     2.3470398570439684E+01
         AVECELL_B     2.3470398570439684E+01
         AVECELL_C     2.3470398570439684E+01
         AVEALPHA     9.0000000000000000E+01
         AVEBETA     9.0000000000000000E+01
         AVEGAMMA     9.0000000000000000E+01
         AVE_ECONS    -9.0405806738995176E-02
         AVE_PRESS     0.0000000000000000E+00
         AVE_PXX     0.0000000000000000E+00
       &END RESTART_AVERAGES
     &END AVERAGES
   &END MD
 &END MOTION
 &FORCE_EVAL
   METHOD  QS
   &DFT
     BASIS_SET_FILE_NAME BASIS_MOLOPT
     POTENTIAL_FILE_NAME GTH_POTENTIALS
     MULTIPLICITY  1
     CHARGE  0
     &SCF
       MAX_SCF  30
       EPS_SCF     1.0000000000000001E-05
       SCF_GUESS  ATOMIC
       &OT  T
         MINIMIZER  DIIS
         PRECONDITIONER  FULL_SINGLE_INVERSE
       &END OT
       &OUTER_SCF  T
         EPS_SCF     9.9999999999999995E-07
         MAX_SCF  5
       &END OUTER_SCF
       &PRINT
         &RESTART  OFF
         &END RESTART
       &END PRINT
     &END SCF
     &QS
       EPS_DEFAULT     1.0000000000000000E-08
       EXTRAPOLATION  ASPC
       METHOD  GPW
     &END QS
     &MGRID
       CUTOFF     4.0000000000000000E+02
     &END MGRID
     &XC
       DENSITY_CUTOFF     1.0000000000000000E-10
       GRADIENT_CUTOFF     1.0000000000000000E-10
       TAU_CUTOFF     1.0000000000000000E-10
       &XC_FUNCTIONAL  NO_SHORTCUT
         &PBE  T
         &END PBE
       &END XC_FUNCTIONAL
       &VDW_POTENTIAL
         POTENTIAL_TYPE  PAIR_POTENTIAL
         &PAIR_POTENTIAL
           R_CUTOFF     1.6000000000000000E+01
           TYPE  DFTD3
           PARAMETER_FILE_NAME dftd3.dat
           REFERENCE_FUNCTIONAL PBE
         &END PAIR_POTENTIAL
       &END VDW_POTENTIAL
     &END XC
     &POISSON
       PERIODIC  XYZ
     &END POISSON
   &END DFT
   &SUBSYS
     &CELL
       A     1.2420000000000000E+01    0.0000000000000000E+00    0.0000000000000000E+00
       B     0.0000000000000000E+00    1.2420000000000000E+01    0.0000000000000000E+00
       C     0.0000000000000000E+00    0.0000000000000000E+00    1.2420000000000000E+01
       MULTIPLE_UNIT_CELL  1 1 1
     &END CELL
     &COORD
O    3.8476523449571123E+00   -4.7572858050839546E+00    5.5115245845274767E+00
H    4.1497688750467425E+00   -5.5056491468484241E+00    6.0683847935870467E+00
H    3.0574142856891551E+00   -4.2852793714456974E+00    5.9390440531958140E+00
O   -3.5402253350684849E+00    1.7506229286990216E+00    4.2923541522524946E+00
H   -3.3923308488365964E+00    7.6122192084084617E-01    4.1612148599187355E+00
H   -3.6132926516188193E+00    1.8605078693837647E+00    5.2190171694537639E+00
O    4.5456227369049049E+00    2.9364709654492809E+00   -7.1008090148461962E+00
H    3.6179751341721218E+00    3.2240598201866164E+00   -6.7885720683933597E+00
H    4.5034151434952845E+00    2.8172408121255965E+00   -8.0457501673143632E+00
O   -2.5785360701602467E+00   -1.3225011917193602E-01   -3.4094899453087089E+00
H   -2.0377144059978916E+00    4.1032370952125552E-01   -2.8178529424964238E+00
H   -1.9113812227585452E+00   -6.4750225922129745E-01   -3.9657431797304725E+00
O   -3.7612751781646994E+00   -7.7162625969845582E+00    5.6315818858479574E+00
H   -4.6675601840473382E+00   -7.4669052285251665E+00    5.9330779566098419E+00
H   -3.8356875331247600E+00   -7.5737707145210846E+00    4.5981656360934027E+00
O   -6.7019957337359388E+00   -8.2861220554711901E-02    2.3103323677972885E+00
H   -6.0574628097447860E+00   -4.0113626353006726E-01    2.9842795718341462E+00
H   -6.2720675019408185E+00    7.6721682191582508E-01    1.9953644491113725E+00
O    4.0181391743713073E+00   -5.5759277303593517E+00   -4.2079929936792487E-01
H    3.3115878232581886E+00   -5.6289378425867573E+00    2.7504291294838223E-01
H    3.8885985801956631E+00   -4.6884479194353883E+00   -8.3151281881583239E-01
O   -2.6708576949909331E+00   -3.0839192551300623E+00   -1.2293555948736719E+00
H   -3.2784731009348738E+00   -2.4928517043320642E+00   -1.7005493999628774E+00
H   -2.1136787674197621E+00   -2.5088166924488684E+00   -6.1932268451512928E-01
O    5.4469281151470765E+00   -3.1793901877087971E+00    3.0960552196850495E+00
H    4.6376570933965100E+00   -3.2479162718423793E+00    3.6944993140113849E+00
H    5.2230696006489632E+00   -2.9639622866542963E+00    2.1363158953303443E+00
O    2.0184499198940511E+00    3.8060650714846540E+00   -6.6620655262876012E+00
H    1.3770270881946491E+00    3.0724805897736571E+00   -6.8197760192857073E+00
H    1.8113229813229739E+00    4.0875976326934023E+00   -5.7405793843037056E+00
O    4.0538238544566187E+00   -3.8994257686877534E+00   -3.0621926940400250E+00
H    3.2831921474224965E+00   -3.7755340300300415E+00   -3.6390884461175292E+00
H    4.3321435234711618E+00   -2.9743342065726566E+00   -2.8927125128400055E+00
O    1.9911703732456920E+00   -1.8367531062048386E+00    1.0233832764696527E+00
H    1.6415785666694516E+00   -2.4879456056886635E+00    1.6750237694150671E+00
H    1.6430063990315751E+00   -1.9673461191292336E+00    1.1436041735467033E-01
O    7.2383887176274175E-01   -5.7477507718415870E+00   -5.0089689076247721E+00
H    1.4318282157472320E+00   -6.3710100862529364E+00   -4.8600287924978192E+00
H    4.2543137375775120E-01   -5.7398823571426911E+00   -5.9181545028360460E+00
O   -7.5227084346099913E+00   -8.6742981035856204E+00   -3.2517552226750563E+00
H   -7.8286284817215073E+00   -9.6036261441206801E+00   -3.1089855912073623E+00
H   -7.1226807184418739E+00   -8.4938123683083493E+00   -2.3915267525347677E+00
O    2.9967200156559373E+00   -1.6392410905018666E+00    5.1746010777225155E+00
H    3.8342030212752052E+00   -1.7514749930662519E+00    5.6695194537923514E+00
H    3.2093996997923959E+00   -8.8513093132519005E-01    4.6032000637673960E+00
O   -9.3981066674305530E-02    1.8627605856179181E+00   -6.7010856623756991E+00
H    2.4851356678245673E-01    1.0300354674734957E+00   -6.3180135358249592E+00
H   -7.9108504512265775E-03    1.7256021883190007E+00   -7.6424884312106203E+00
O    1.3949219369907961E+00   -3.0865100270445955E+00    3.6637438783936584E+00
H    2.0118709927544765E+00   -2.6436372138266884E+00    4.2977354609648293E+00
H    1.0859631661237072E+00   -3.9138054749474032E+00    3.9689922570583591E+00
O   -2.3282066405595381E+00    2.7977935219202053E+00    2.2332326540692953E+00
H   -1.6086213624537964E+00    2.1098694689162736E+00    2.1098585646475168E+00
H   -2.7965698486218993E+00    2.5965913802415872E+00    3.0832178048295296E+00
O    8.8204856087087846E-01   -6.5407493951289064E-01   -5.6103944774677315E+00
H    1.7808054571721077E+00   -8.1324037281487105E-01   -6.0954143079316134E+00
H    1.1758966985808990E+00   -2.4051657644856850E-01   -4.7397617571595205E+00
O   -1.1659508185836664E+00   -7.1870873916100619E-01    2.2045955911836970E-01
H   -1.0883294195555500E+00    2.3040193607122358E-01   -6.1035711710604519E-02
H   -9.9175182802152950E-01   -7.6019376872769473E-01    1.1521247065044216E+00
O   -3.8848294046916139E+00   -9.0050432615243388E+00   -3.1129051416291489E+00
H   -4.4951589798980676E+00   -8.2402528898188194E+00   -3.1462578685698115E+00
H   -2.9514136351878237E+00   -8.6631350126532904E+00   -3.1310574144614467E+00
O    4.9788070674497451E+00    4.5789816263372227E+00    2.1732999987436967E+00
H    4.5821871687594955E+00    4.0917957453971043E+00    1.4196794100544110E+00
H    4.1990040773305610E+00    4.9855029389955305E+00    2.6443519348732032E+00
O    4.2125979079902365E+00    1.0320643193079522E+00   -3.2075179558690201E+00
H    4.6109829830420699E+00    9.2892321051861182E-01   -4.1218526723301379E+00
H    4.4390493108605789E+00    1.9775575957021002E-01   -2.6646120146673198E+00
O   -5.2049429059744057E+00   -6.3435776378949154E+00   -2.6938083039228946E+00
H   -5.4127114218263994E+00   -6.0011639282017244E+00   -1.7785273078979404E+00
H   -5.9895092842606408E+00   -6.0787615532548207E+00   -3.2115273884013877E+00
O    4.8297826545058165E+00   -2.1460301274331330E+00    6.9148834614081878E-01
H    5.1654009966326031E+00   -1.3040323033120926E+00    1.1898607007938387E+00
H    3.8455341599819115E+00   -2.0002332379073762E+00    8.3128074694201148E-01
O    2.1233117341287908E+00    9.4619723053581417E-01    1.6988741636283007E+00
H    2.8186775415154566E+00    1.5138894727197945E+00    1.3030530792811132E+00
H    2.3787825058190157E+00    7.7819659130711399E-02    1.3043882201252939E+00
O   -5.7551611465470520E+00   -5.0952218493453687E+00   -3.6631930630238230E-01
H   -6.6280136223405099E+00   -5.4636281708206935E+00   -2.4921708320056785E-01
H   -5.9110110075797859E+00   -4.1636564688783011E+00   -6.3274687694898679E-01
O   -4.8451714031716779E+00    4.6295334585666188E+00    2.6237514891609672E+00
H   -5.8338666198480960E+00    4.7080363053695962E+00    2.3479137323581836E+00
H   -4.7458081160502399E+00    3.7721490593574112E+00    2.2497939500698911E+00
O    5.4878855705818745E+00    8.5034780893516027E-01   -5.6028979824573959E+00
H    6.3743017184711874E+00    1.1349259102086751E+00   -5.4292715072625697E+00
H    5.0537462814948348E+00    1.4711340892448159E+00   -6.2287574403135952E+00
O    7.4203322552736717E-01   -1.9094702528728120E+00   -1.2632027025492707E+00
H    4.4137034539481340E-01   -2.7336832765823158E+00   -1.7944160149765274E+00
H   -4.2908696079472577E-02   -1.6733857432078951E+00   -7.3041999635127042E-01
O    3.8980938339558886E+00    2.6153010043282703E+00    9.9147125366513711E-02
H    4.6403480981778999E+00    2.4145249094265977E+00   -4.7663747629381659E-01
H    3.2891603467418249E+00    3.2296918292348700E+00   -4.2733128908356566E-01
O   -1.0877513901562317E+00   -1.3777923395916081E+00    2.9398761220063143E+00
H   -3.4537839568493922E-01   -2.0215520765893462E+00    3.1568884354793081E+00
H   -1.8639888134401164E+00   -1.9985169512900780E+00    3.1409485824666783E+00
O    2.0638896927987944E+00   -5.6291011757085823E+00    1.3589710299735218E+00
H    1.2241783584131636E+00   -6.1510749855615456E+00    1.2679508744038537E+00
H    2.3326177588319670E+00   -5.9010392283195925E+00    2.2929757835968827E+00
O   -6.3569086027817512E-01   -3.8243248754036343E+00   -2.8366279595407016E+00
H   -1.5662129729812384E+00   -3.7833270203506562E+00   -2.5291166488599699E+00
H   -4.9298200742203857E-01   -4.5871868985511393E+00   -3.4240910833449365E+00
O   -5.2851512109669345E+00    2.0768708245480134E+00    1.4481115858432176E+00
H   -4.4422170889683619E+00    1.9152768632761050E+00    1.8936235989150683E+00
H   -5.1150416755793886E+00    1.9171778267921757E+00    4.0737244013754259E-01
O    1.9669863117946238E+00   -3.4196229492762318E+00   -5.2669059658918691E+00
H    1.3750718858907980E+00   -4.1805080769640153E+00   -5.0353539264655325E+00
H    1.2819814803749796E+00   -2.7503526181906657E+00   -5.5587757658794850E+00
O   -1.1889920589633556E+00    3.9307389053071491E+00   -3.3708834015967670E+00
H   -1.1787154565301978E+00    3.9419830076554137E+00   -4.3411649698330308E+00
H   -7.1845294145304628E-01    4.6814274379307932E+00   -2.9586563662148957E+00
O   -5.4351472245047594E+00   -5.0029878701923396E+00    4.2721509154917490E+00
H   -6.1341561959028761E+00   -4.5172180492452503E+00    3.7438348610105887E+00
H   -4.8014611150820423E+00   -5.3898970282243610E+00    3.6908832263974167E+00
O    2.9745722732030107E+00    5.8010080878297083E+00    3.5990243212730393E+00
H    3.3436117805169903E+00    6.5046387713713347E+00    4.1958504008001274E+00
H    2.4290421504519957E+00    5.1852393010600570E+00    4.1434139300301887E+00
O   -4.0472619461952997E+00    1.5479345625669203E+00   -5.0681202895162496E+00
H   -3.5802922676943965E+00    7.9842284342184233E-01   -4.5877340538627882E+00
H   -4.0205428252834920E+00    2.3137535160455651E+00   -4.4776027916633057E+00
O    3.4766154248639318E+00    5.9361944393506194E-01    4.0095344644104012E+00
H    2.8661401107298743E+00    5.7444569001116386E-01    3.2024647194268949E+00
H    4.3028271425506066E+00    4.3761810507559235E-01    3.5393745881632710E+00
O   -4.6151927577920695E+00   -1.0200372537614295E+00    3.9979255354638497E+00
H   -5.3499961071482955E+00   -1.2503060327899449E+00    4.6822322626441721E+00
H   -4.1870833766621498E+00   -1.9226608080819663E+00    3.7843979120418116E+00
O   -2.1567122495703142E-01    1.2745000876647277E+00    3.1331105884015793E+00
H    6.7635956277770692E-01    1.3931430519330286E+00    2.7218210449620774E+00
H   -4.1944694327972692E-01    2.8540357909495667E-01    3.0672267493637460E+00
O   -1.9871618532263717E+00    5.0471641083507146E+00    5.9072481891127759E-01
H   -2.2950991526758893E+00    4.1788806370792422E+00    9.8617600529456861E-01
H   -2.6184585947802357E+00    5.7603568381611749E+00    7.7989576221775148E-01
O   -1.2975881417307353E+00   -1.8959862203527649E+00   -4.9488676293755223E+00
H   -8.4447962645445485E-01   -2.4260000461612559E+00   -4.2026563070401650E+00
H   -5.1753501843375416E-01   -1.3190541366490085E+00   -5.4058824529296983E+00
O   -5.1474696587115085E+00    1.8163602675673474E+00   -1.2949290984394672E+00
H   -4.6896927580947017E+00    2.4822427272933107E+00   -1.8862938400147162E+00
H   -5.3630314051647003E+00    1.1054334265096279E+00   -1.9187615885832847E+00
O   -7.3725434742878351E+00   -1.2310127856406727E+00   -1.9463011288178229E+00
H   -6.4119126325068505E+00   -1.1004746924920283E+00   -2.1520263421257178E+00
H   -7.4688554267793608E+00   -1.5237200531108170E+00   -9.9634737929803197E-01
O   -4.6255626947361556E-01    1.4130274566735359E+00   -1.7108565841574002E+00
H   -7.8643554080038036E-01    2.1962037671321779E+00   -2.1750997913423289E+00
H    2.6310886007775169E-01    9.6355335386835028E-01   -2.2298453468219619E+00
O   -3.7631700678172404E-02   -6.5074356495994170E+00   -1.0950836222099001E+00
H    9.8611690372129909E-03   -5.5508987336300049E+00   -1.1092574073611747E+00
H   -8.2215615804538789E-01   -6.7760983077920374E+00   -4.1315389335005892E-01
O    5.7092953168077063E+00   -1.6930826194698507E+00    6.0203052268441004E+00
H    6.0008777991717643E+00   -2.4972487317509220E+00    6.4746994926580568E+00
H    5.7439407743611683E+00   -9.4493709210745347E-01    6.6246631099001050E+00
O   -2.6041076458987691E+00   -5.7826158332352744E+00   -4.2098624993981923E+00
H   -2.6171910552276638E+00   -6.6894846050515229E+00   -4.5501195654889770E+00
H   -3.5116730731288563E+00   -5.4989318627693748E+00   -3.8835192493213695E+00
O   -4.9429946891799501E+00   -1.4023936323824717E+00   -3.2393776540057355E+00
H   -4.9684997748230124E+00   -2.2666220860031232E+00   -3.7719727180941720E+00
H   -4.0141724213104268E+00   -1.0704405747990846E+00   -3.2380430366836563E+00
O    2.2895911045899342E+00   -8.0798070753155606E+00   -1.2247156520413440E+00
H    1.2856438639152119E+00   -8.1069476688888127E+00   -1.1243076406328434E+00
H    2.5362593229358867E+00   -7.1181913378789057E+00   -1.1713415255753987E+00
O    6.7772676934842666E+00   -3.8953014887071382E+00   -5.3356045359030659E+00
H    7.6152664451632317E+00   -4.1737054778426588E+00   -5.8350922533497220E+00
H    6.0291766242350517E+00   -4.4270201087656105E+00   -5.6850555948126678E+00
O   -3.4356171039261352E-01    4.9716797630947402E+00    2.9576523493804987E+00
H   -6.6110926145608440E-01    4.2334406802270452E+00    3.4704273464959607E+00
H   -7.2136220206299539E-01    4.8440026843339634E+00    2.0571830811296046E+00
O   -2.8150516805287289E+00   -3.9995836216161278E+00    6.2244319342278276E+00
H   -2.4306786593802041E+00   -4.5870032088842585E+00    6.9104099631806353E+00
H   -2.4092687081264947E+00   -3.1557886888084505E+00    6.3980625027960869E+00
O   -2.7965980948775933E+00   -3.4832106743804716E+00    3.4713732603642096E+00
H   -3.0913923244758927E+00   -3.8818847039106519E+00    4.2789501870483271E+00
H   -3.2323225283815602E+00   -4.0479081706502509E+00    2.8242419017607041E+00
O    2.4871837245327981E+00    4.6840691935262653E+00   -3.9634428257599366E+00
H    3.3977920886867850E+00    4.5378401690626751E+00   -3.6105312751833640E+00
H    1.9752092419755847E+00    4.5646399046261052E+00   -3.0919996844416713E+00
O    1.6536854515617119E+00    5.4820618014466686E-02   -3.1023547997480501E+00
H    1.6049118720593687E+00   -5.9146989847131337E-01   -2.3646874318393580E+00
H    2.4635680801736375E+00    5.6108543631787300E-01   -3.0510933207563982E+00
O   -1.2128596315819560E+00   -8.1736108386126407E+00   -6.3553779594308288E+00
H   -8.9701002960674814E-01   -9.0549708078445743E+00   -6.5665804200111992E+00
H   -2.1546148637623452E+00   -8.0407590797834416E+00   -6.5301191355941937E+00
O   -4.6762851948539796E-01    8.3701641440729073E+00    6.0210616779600867E-01
H    3.3708755245952216E-01    8.2868070139897867E+00    1.1589118664265126E+00
H   -1.2126860260781875E+00    8.0371558675147146E+00    1.1271839674367261E+00
O    5.8900381761714753E+00   -6.7862394276443325E+00   -6.6126980627013543E+00
H    5.4363292295434995E+00   -7.5720762871660465E+00   -6.9478539003220732E+00
H    6.1310034891222784E+00   -6.1526391986164946E+00   -7.3565409001072606E+00
O   -3.5556832836198543E-01   -5.2572702952809358E+00    4.6698016653860357E+00
H   -3.7629095652461775E-01   -6.0985178307570438E+00    4.0714635577627138E+00
H   -1.2809813191995336E+00   -5.1437750820949741E+00    4.9671452953012354E+00
O   -3.8179546017830912E+00   -5.5296910459424584E+00    1.7936571244063435E+00
H   -4.0725918834717598E+00   -6.4204998325706093E+00    2.1294647572842944E+00
H   -4.3943224119084983E+00   -5.2907483180562043E+00    1.0079043582546863E+00
     &END COORD
     &VELOCITY
          -2.0012457712229143E-04   -7.9571378317538051E-05    2.9984680829203605E-05
          -1.2494326912729334E-03    1.1976358492798884E-03    1.2820396974112648E-03
          -4.4581629913618986E-04    4.0460429825206603E-04    6.8472233715134094E-04
           1.0549626124893132E-04    7.3251624078136642E-05    2.4124410733531958E-05
          -8.3822967140433091E-04   -1.2966589415712945E-03    3.2445663631066289E-04
          -1.9014667384382720E-04   -1.4497319833484997E-03    2.8895298387344208E-05
          -4.2753793584992145E-04    6.2048125745546841E-05    4.5688621902507980E-05
          -9.3824598421589486E-04   -2.3104760137782914E-04    2.9482832750066729E-05
          -1.0942714383832115E-06    4.4090542283347820E-04   -7.4329891284546793E-04
          -1.0360820733737246E-04   -5.0481769401762241E-04    6.7921451400127010E-05
           4.2370666798244934E-04    4.1257605661509944E-04    8.7174139320897286E-04
          -6.7007680068976723E-04   -7.8640944270259589E-04   -7.7067966683923858E-04
           1.8778953026350604E-05   -8.2502210955834348E-05   -1.0697408282092269E-05
          -7.2986779279573079E-04   -8.5038040261883950E-04   -1.0345005587405524E-03
           2.0557612458839211E-04    8.6712430126001372E-04   -4.0570711130974900E-05
           2.0269724882309332E-04   -1.2591047106645274E-04   -1.1454838595221814E-04
          -3.2505219900498631E-04    9.2265653150628158E-04   -7.5986178499192749E-04
          -2.3979482916013624E-04    5.8319215315633674E-04    6.3751357015558467E-04
           1.4167735835405744E-04    8.5198169301583461E-05   -1.5080597830357878E-04
          -5.0020291846051711E-04   -2.0188259888435464E-04   -3.8674864928634649E-04
          -4.2863288677165179E-04    1.4758026323208777E-03   -2.7018917688964995E-04
          -3.5182620899951736E-05   -5.2582012811265523E-05   -7.9424172303953810E-05
          -4.3295584940237765E-04   -7.7297278965719437E-04    9.5087227751621309E-04
           1.3198930820414831E-03    1.7779016945763317E-03   -8.5954129901124232E-04
          -1.8825441256349964E-04   -2.0092650417221340E-04   -7.4859477712468564E-05
          -8.4524694295472485E-04    9.8994922664031516E-05    9.4961113327510802E-04
          -8.7648124133586104E-04    1.4698840724140898E-03    5.6799906675313321E-04
           1.9318639542677810E-04    7.3837554489716883E-05   -3.2883599375908487E-04
          -2.0727729023294528E-04   -6.5245698911302032E-05   -2.2077806430673873E-04
          -2.6692541353034739E-04    3.7201678378597403E-04   -5.1265235452552260E-04
          -1.6997503659289660E-04   -1.2601929953794331E-04   -7.0846008298744984E-05
           1.3284692510428513E-03   -1.1566855222467575E-03    1.2963541455543535E-03
           1.8358417317813411E-04    5.5717266203170960E-04    1.8297220106322488E-03
           2.8854906012309826E-04    1.5942968516325439E-04    2.3883452976016395E-05
           1.4641944034359375E-03   -2.3219002347062186E-04    3.9384548615945534E-04
           1.8791161586214670E-04   -1.2764448551124503E-03    9.4096533122506483E-04
          -2.2278965238517817E-04   -2.3363024497719242E-05    6.9919417658380109E-05
          -1.8711046744423085E-04   -1.4133671376253313E-03   -6.8892105078371014E-04
          -6.1361323356588446E-04   -8.3018614212923938E-04   -2.7898898822754865E-04
          -1.2103101465668904E-04    5.0136547238538300E-05   -2.5304864453785041E-04
           8.0833887502953909E-04   -1.4567722240245220E-04   -7.8573167136527350E-04
           3.9169095423220393E-04    1.8949800229262927E-03   -6.4986933576274158E-04
          -2.5356535920391800E-04   -3.8567965555307698E-04    1.1959049949480749E-04
          -1.6054445758805386E-04    8.4415838961639873E-04   -3.5436954308767243E-04
           9.5749286765085774E-04   -3.8734843031407802E-04   -5.2143405988557695E-04
           1.5836997963420220E-05    2.9523539023232643E-05   -2.2762706719191893E-04
           3.3713582175907145E-04   -1.0214867359718076E-03    3.0843748080060343E-04
           6.6848039721477458E-04   -5.5696762203247502E-04   -9.7655063770839485E-04
           2.7581393130459450E-04   -2.3954433423338548E-05    9.9829319619184640E-06
           2.1507978189303940E-04    6.0158302101482230E-04   -2.0309802615266624E-04
          -6.2815201554758317E-04    6.6585856446683132E-05    2.9269218672850472E-04
           1.5161557403423757E-05   -1.4235920621580707E-04   -7.3358069965935035E-05
           2.9174676130410759E-05   -1.2451239915038095E-04   -1.0954389365184685E-03
          -6.4081887137194566E-04    6.7521798796775273E-05    2.4767619726069785E-04
           1.9368049307248608E-04    1.5527226759327341E-04   -2.0611599133590471E-04
           5.6212934508135181E-04   -1.8580641156745953E-05    2.9051806435346253E-04
          -4.5662686315375020E-04   -2.8489762092974658E-04    3.8613082686092916E-04
           3.7219316506013520E-04   -1.4784597716513821E-05   -4.8709689120361911E-04
           8.7855513279405043E-04   -5.7150845509386654E-04    2.8094706820469496E-04
          -1.0255424660599089E-03    3.3142812866957552E-04   -9.2119866948727166E-05
           3.5140057237551584E-05    1.1592927265027511E-04    3.4254716574460924E-04
          -6.0730937616175696E-05    1.3101058555604380E-03    1.3054244301525801E-03
          -7.1455406610008195E-04    1.2949623539262201E-03   -4.5191230726153672E-05
          -1.2443961589068446E-05    3.9489497656724283E-04    2.3540490481196698E-04
           1.5807396014139231E-04    1.5255011939623703E-04   -5.6022801045832796E-04
          -4.8180591974011165E-06    1.4884287331315567E-03   -4.8909186297729724E-04
           8.1484251229756190E-05    3.7523203179371236E-05    1.4211934071804740E-04
          -4.6294118380024202E-05    1.3499501394693301E-03   -1.4359121912931700E-03
           3.6949290660611409E-04    3.7037136337154123E-04    1.1894572821673965E-03
           1.1723794725919093E-04    2.5595055888515649E-05   -2.5822562056343918E-04
          -5.1149166338664692E-04    1.7717807972384607E-03    1.3155325530758642E-04
          -5.5915549479404572E-05    2.7700843169551248E-04   -1.2984843823733421E-03
           4.4386936314214988E-05    8.7063179974026665E-05   -8.4051975114723043E-05
           1.5854446273317160E-04    1.4196030955348758E-03    4.1423559077748996E-04
          -8.2568262858580526E-04    1.3066522897459325E-05    7.3550083364904957E-04
           2.8249492069623274E-04    9.2696998733362174E-05    4.1579831376007625E-05
           1.1918530574611308E-03    5.2545375675062457E-04    6.4107147578785194E-04
           7.7831368080202466E-04   -4.0489896401152897E-04    2.1577512948166299E-04
           1.0325188633543462E-04   -8.3728802065402312E-07   -9.3386763041352030E-05
           2.6655655317271693E-04   -5.8591436858440235E-04    1.4192059672403062E-04
           5.0056872195187508E-04    1.9022373351224180E-04    1.1291542687150932E-03
           5.7710316645722603E-05   -8.1844361357674738E-05   -1.5849162918011087E-04
          -4.0579703917322067E-05   -1.7009555938836871E-04    1.1201631343424352E-04
           7.0935852562686375E-04    1.6057848093654853E-03   -8.1897947344891775E-05
          -5.2160952406948380E-04   -7.1201826659348692E-05   -1.8851119885661380E-04
           5.4257466146679398E-04   -6.1295098109031437E-04   -1.4755575385145964E-03
           6.8558528649039852E-04    3.7940100454479306E-04    1.0546636553471979E-03
           1.2899360670398806E-04    1.1106803603314069E-04    1.1994798277259312E-04
           2.4970357440382902E-04   -7.1161487561552058E-04    1.2905617084066109E-03
          -7.8944834913926534E-04   -3.6580046230831365E-04    3.4135177229656989E-04
          -6.8838767688069615E-05   -1.0369498284239021E-04    3.1476816140593397E-04
          -8.2012046147897827E-05   -1.5696848866637224E-04    5.1175461423507317E-05
          -1.3006397561678409E-03   -4.2439327326797304E-04    6.6945482093520707E-04
           2.2999165746311062E-04   -2.1781942443234838E-04   -1.6224474513356848E-04
          -4.4588258655350063E-04    8.2724303898396370E-04    8.2051859978124193E-04
          -3.7518428227447082E-05    2.7845248719828139E-04   -1.2953431873689940E-03
          -1.9169399717212227E-04    3.7486959523506692E-04   -6.9992392669494132E-05
           9.7214328390425348E-04    1.7102071336981590E-05    1.3908836263630374E-04
          -2.2137475272172541E-03   -3.1843396269027355E-04    5.8546214141664350E-04
          -1.1041600877194105E-04    9.8884907036534189E-05    1.7847012480329955E-04
          -4.3223671289074124E-04   -2.0326555856277855E-04    1.2693811996607517E-03
           2.9218609475496841E-04   -5.3018668419819298E-04   -7.8162333054601206E-04
           1.0844601108286210E-04    2.6088180359128479E-04    1.5167688449263392E-04
           6.1067149763617350E-04    4.9994756570384655E-04   -1.4540386520711567E-04
           2.3519481803064898E-04    1.3666702452914763E-04    9.3240281757352183E-04
           9.7745865469097342E-05    8.7412045360170924E-05    5.7124791663758522E-06
           1.3065039188833879E-03    4.5807819179608178E-04    3.4682790492977802E-05
           6.7525659824942868E-05    4.5479579582024821E-04   -1.0414496140493650E-03
           5.1513662528139744E-05   -1.6073161167153162E-04    8.1740915681835369E-05
           7.2568715983852743E-04   -4.0565812723292795E-04   -2.1635588630721295E-04
           5.6294653498474036E-04    1.0902849211262429E-03   -3.7027803577773324E-04
          -2.3526215601781629E-04    1.4131862067798950E-05   -5.5707413712633210E-05
          -9.1006796100750131E-05    1.7694856741335636E-04   -1.0010344156865727E-03
          -7.5597653501293120E-04   -9.8656260004060517E-04   -7.6812896816495324E-04
           1.9411335055689215E-05    1.1176161679606109E-04   -9.1148713094085437E-05
          -1.4034400800140246E-03    7.0841834657071900E-04    7.7150966300381339E-04
          -2.0896131649723678E-04   -1.1956019593568971E-04   -1.5221265634631517E-03
           6.5935860704059617E-05    3.2424613754599254E-05   -1.0698695693427597E-04
          -1.0019835743244891E-03    6.8916365166931239E-04    4.5694085011369257E-04
           3.2716449205559247E-04   -8.1613456751970749E-04   -7.7660856882867993E-04
          -1.8100090108766500E-04   -1.2376049261249978E-04   -3.3336986998885671E-05
           1.6497958373149824E-03    9.4818056825232504E-04   -7.8873221695101672E-04
           9.4340390226876428E-05    3.5969721455104584E-04    1.7734882537414343E-03
           8.4534627298268926E-05   -1.9001750154792421E-04   -1.1469232292284079E-04
           4.0088034049016677E-04   -5.8248282805764228E-05    8.4863638883552449E-04
           2.0347535913696471E-04   -1.0840058043199067E-04   -9.9458107137588504E-04
          -3.8990732590746941E-06   -2.4364648749474625E-05    3.0696113151596567E-04
           9.9833561275888762E-04   -4.9592275350638694E-04   -4.6238838784203414E-04