!!! Generated by AiiDA !!!
&FORCE_EVAL
   &DFT
      BASIS_SET_FILE_NAME BASIS_MOLOPT_UCL
      &KPOINTS
         FULL_GRID .FALSE.
         PARALLEL_GROUP_SIZE 0
         SCHEME MONKHORST-PACK 3 3 5
      &END KPOINTS
      &MGRID
         CUTOFF 600.0
         NGRIDS 5
         REL_CUTOFF 100.0
      &END MGRID
      &POISSON
         PERIODIC XYZ
         POISSON_SOLVER PERIODIC
      &END POISSON
      POTENTIAL_FILE_NAME GTH_POTENTIALS
      &PRINT
         &MO
            &EACH
               QS_SCF 1000
            &END EACH
            EIGENVALUES .TRUE.
         &END MO
      &END PRINT
      &QS
         EPS_DEFAULT 1e-12
         EXTRAPOLATION USE_GUESS
      &END QS
      ROKS .FALSE.
      &SCF
         ADDED_MOS 75
         EPS_SCF 5e-07
         MAX_SCF 250
         &MIXING
            ALPHA 0.01
            METHOD BROYDEN_MIXING
            NBUFFER 30
         &END MIXING
         SCF_GUESS RESTART
      &END SCF
      UKS .FALSE.
      &XC
         &XC_FUNCTIONAL PBE
         &END XC_FUNCTIONAL
      &END XC
   &END DFT
   METHOD Quickstep
   STRESS_TENSOR ANALYTICAL
   &SUBSYS
      &CELL
         A 16.273218457353 0.0             0.0            
         B -5.2244224653624 16.83395132236  0.0            
         C -4.3207234542062 4.6146955935651 12.175262387007
         PERIODIC XYZ
      &END CELL
      &KIND Cs
         BASIS_SET TZVP-MOLOPT-SR-GTH
         POTENTIAL GTH-PBE-q9
      &END KIND
      &TOPOLOGY
         COORD_FILE_FORMAT XYZ
         COORD_FILE_NAME aiida.coords.xyz
      &END TOPOLOGY
   &END SUBSYS
&END FORCE_EVAL
&GLOBAL
   PROJECT aiida
   RUN_TYPE energy
&END GLOBAL

